! AWR Design Environment (7688) Thu Oct 13 15:18:23 2016
! Document = 'CGHV50200F_IMN_No_EM'
! nPorts: 2, nXvals: 203

# HZ S DB R 50
!Freq DBS11 AngS11 DBS21 AngS21 DBS12 AngS12 DBS22 AngS22 
0 -61.011258 -0 -0.0077351874 -0 -0.0077351874 -0 -61.011258 -0 
100000 -56.597418 -53.052313 -0.007767691 -0.069956214 -0.007767691 -0.069956214 -56.579337 -53.13837 
1000000 -38.492799 -86.44157 -0.0085291139 -0.70032212 -0.0085291139 -0.70032212 -38.464481 -86.420506 
1e+008 -2.3574323 -143.29341 -3.8470512 -51.649919 -3.8470512 -51.649919 -2.3239057 -140.01447 
2e+008 -0.74924157 -163.83539 -8.23646 -70.538271 -8.23646 -70.538271 -0.71287529 -157.28946 
3e+008 -0.37414822 -174.26958 -11.345805 -79.333433 -11.345805 -79.333433 -0.3353452 -164.45404 
4e+008 -0.23600989 178.64555 -13.654584 -84.780485 -13.654584 -84.780485 -0.19492154 -168.26276 
5e+008 -0.17161549 173.00894 -15.461955 -88.776402 -15.461955 -88.776402 -0.12831107 -170.61323 
6e+008 -0.13717112 168.11443 -16.929992 -92.024864 -16.929992 -92.024864 -0.09168692 -172.2082 
7e+008 -0.11710834 163.64282 -18.152854 -94.843 -18.152854 -94.843 -0.069464254 -173.36337 
8e+008 -0.104796 159.42857 -19.189311 -97.394387 -19.189311 -97.394387 -0.055001458 -174.24066 
9e+008 -0.097030756 155.37654 -20.078248 -99.772202 -20.078248 -99.772202 -0.045086892 -174.93142 
1e+009 -0.09211536 151.42735 -20.846597 -102.03378 -20.846597 -102.03378 -0.038015656 -175.49102 
1.1e+009 -0.089085357 147.54123 -21.513706 -104.21674 -21.513706 -104.21674 -0.032815463 -175.95493 
1.2e+009 -0.087362507 143.68979 -22.093878 -106.34717 -22.093878 -106.34717 -0.028899515 -176.34695 
1.3e+009 -0.086585864 139.85148 -22.597928 -108.44411 -22.597928 -108.44411 -0.025897124 -176.68358 
1.4e+009 -0.086523714 136.00898 -23.034186 -110.52215 -23.034186 -110.52215 -0.023565264 -176.97668 
1.5e+009 -0.087025108 132.14753 -23.409148 -112.59306 -23.409148 -112.59306 -0.021739713 -177.23496 
1.6e+009 -0.087992007 128.25387 -23.727931 -114.66677 -23.727931 -114.66677 -0.020306798 -177.46495 
1.7e+009 -0.08936275 124.31549 -23.994586 -116.75207 -23.994586 -116.75207 -0.019186397 -177.67168 
1.8e+009 -0.091102044 120.32006 -24.212316 -118.85713 -24.212316 -118.85713 -0.018321387 -177.85906 
1.9e+009 -0.093194923 116.25491 -24.383646 -120.98988 -24.383646 -120.98988 -0.017670908 -178.0302 
2e+009 -0.095643246 112.10671 -24.51054 -123.15829 -24.51054 -123.15829 -0.017206005 -178.18756 
2.1e+009 -0.098463941 107.86094 -24.594488 -125.37068 -24.594488 -125.37068 -0.016906755 -178.33319 
2.2e+009 -0.10168857 103.50154 -24.636573 -127.63601 -24.636573 -127.63601 -0.016760415 -178.46872 
2.3e+009 -0.10536398 99.010364 -24.637528 -129.9641 -24.637528 -129.9641 -0.016760248 -178.59554 
2.4e+009 -0.10955403 94.366636 -24.59777 -132.366 -24.59777 -132.366 -0.016904869 -178.7148 
2.5e+009 -0.11434239 89.546243 -24.517437 -134.85437 -24.517437 -134.85437 -0.017197984 -178.82746 
2.6e+009 -0.11983663 84.520882 -24.396417 -137.44385 -24.396417 -137.44385 -0.017648484 -178.93436 
2.7e+009 -0.12617379 79.256993 -24.234384 -140.15168 -24.234384 -140.15168 -0.018270852 -179.03619 
2.8e+009 -0.13352776 73.714419 -24.03083 -142.9983 -24.03083 -142.9983 -0.019085904 -179.13354 
2.9e+009 -0.14211898 67.844698 -23.785128 -146.00824 -23.785128 -146.00824 -0.020121858 -179.2269 
3e+009 -0.15222658 61.588913 -23.496607 -149.21112 -23.496607 -149.21112 -0.021415731 -179.31667 
3.1e+009 -0.16420316 54.874977 -23.164684 -152.64301 -23.164684 -152.64301 -0.023015024 -179.40313 
3.2e+009 -0.17849158 47.614277 -22.789065 -156.34795 -22.789065 -156.34795 -0.024979459 -179.48645 
3.3e+009 -0.19564076 39.697651 -22.370071 -160.37986 -22.370071 -160.37986 -0.027382266 -179.56661 
3.4e+009 -0.21631372 30.990884 -21.909139 -164.80451 -21.909139 -164.80451 -0.03030979 -179.64337 
3.5e+009 -0.24127171 21.330369 -21.409612 -169.70137 -21.409612 -169.70137 -0.033856891 -179.71617 
3.6e+009 -0.27130141 10.520582 -20.877922 -175.16432 -20.877922 -175.16432 -0.038113279 -179.78396 
3.7e+009 -0.30702485 -1.6630491 -20.325271 178.70046 -20.325271 178.70046 -0.043132524 -179.84507 
3.8e+009 -0.34849994 -15.459133 -19.769821 171.7825 -19.769821 171.7825 -0.048872449 -179.89713 
3.9e+009 -0.39452476 -31.082462 -19.238994 163.98593 -19.238994 163.98593 -0.055099295 -179.93715 
4e+009 -0.44171403 -48.651613 -18.770731 155.26366 -18.770731 155.26366 -0.061273307 -179.96221 
4.1e+009 -0.48387704 -68.081904 -18.411431 145.66569 -18.411431 145.66569 -0.066495258 -179.97097 
4.2e+009 -0.51283474 -88.979456 -18.208094 135.38423 -18.208094 135.38423 -0.069659073 -179.96565 
4.3e+009 -0.52150763 -110.61902 -18.194896 124.75986 -18.194896 124.75986 -0.06988636 -179.95303 
4.4e+009 -0.50783568 -132.07994 -18.38023 114.219 -18.38023 114.219 -0.067019402 -179.94261 
4.5e+009 -0.47606032 -152.50058 -18.743172 104.16166 -18.743172 104.16166 -0.061735149 -179.94261 
4.6e+009 -0.43404689 -171.2953 -19.242164 94.865094 -19.242164 94.865094 -0.055156327 -179.95692 
4.7e+009 -0.38936812 171.78313 -19.829293 86.453465 -19.829293 86.453465 -0.048330294 -179.98506 
4.8e+009 -0.34711634 156.71459 -20.461591 78.926489 -20.461591 78.926489 -0.041948308 179.97587 
4.9e+009 -0.30978223 143.32573 -21.106069 72.209484 -21.106069 72.209484 -0.036338444 179.9293 
5e+009 -0.27806479 131.38342 -21.739952 66.196279 -21.739952 66.196279 -0.031580595 179.87819 
5.1e+009 -0.25170977 120.65081 -22.348743 60.776126 -22.348743 60.776126 -0.027623656 179.82468 
5.2e+009 -0.23007251 110.91355 -22.92389 55.847042 -22.92389 55.847042 -0.024364171 179.77021 
5.3e+009 -0.21242149 101.98833 -23.460814 51.320692 -23.460814 51.320692 -0.021688685 179.71568 
5.4e+009 -0.19807577 93.722734 -23.957458 47.122897 -23.957458 47.122897 -0.019492736 179.66163 
5.5e+009 -0.1864536 85.991567 -24.413304 43.192248 -24.413304 43.192248 -0.017687344 179.60836 
5.6e+009 -0.17707957 78.692291 -24.828737 39.478126 -24.828737 39.478126 -0.016199647 179.55601 
5.7e+009 -0.16957489 71.740625 -25.204631 35.938709 -25.204631 35.938709 -0.01497121 179.50464 
5.8e+009 -0.16364268 65.066758 -25.542096 32.539209 -25.542096 32.539209 -0.013955665 179.45425 
5.9e+009 -0.15905338 58.612217 -25.842327 29.250381 -25.842327 29.250381 -0.013116417 179.40482 
6e+009 -0.15563207 52.32734 -26.106508 26.047318 -26.106508 26.047318 -0.012424658 179.3563 
6.1e+009 -0.1532483 46.169243 -26.335762 22.908465 -26.335762 22.908465 -0.011857751 179.30864 
6.2e+009 -0.15180811 40.100188 -26.53112 19.81482 -26.53112 19.81482 -0.011397954 179.26177 
6.3e+009 -0.1512481 34.086251 -26.693511 16.749283 -26.693511 16.749283 -0.011031427 179.21566 
6.4e+009 -0.15153105 28.096226 -26.823761 13.696116 -26.823761 13.696116 -0.010747472 179.17024 
6.5e+009 -0.15264298 22.10069 -26.922598 10.640487 -26.922598 10.640487 -0.010537952 179.12547 
6.6e+009 -0.15459117 16.0712 -26.990659 7.568064 -26.990659 7.568064 -0.010396853 179.08129 
6.7e+009 -0.15740316 9.9795609 -27.028511 4.4646646 -27.028511 4.4646646 -0.01031995 179.03769 
6.8e+009 -0.16112643 3.7971542 -27.036667 1.3159216 -27.036667 1.3159216 -0.010304563 178.99461 
6.9e+009 -0.16582866 -2.5057106 -27.01561 -1.89303 -27.01561 -1.89303 -0.010349364 178.95203 
7e+009 -0.17159836 -8.9604314 -26.965828 -5.1778601 -26.965828 -5.1778601 -0.010454236 178.90994 
7.1e+009 -0.17854569 -15.60075 -26.887853 -8.5553448 -26.887853 -8.5553448 -0.010620142 178.86831 
7.2e+009 -0.18680308 -22.463388 -26.782314 -12.043664 -26.782314 -12.043664 -0.010849004 178.82714 
7.3e+009 -0.19652511 -29.588673 -26.650008 -15.662683 -26.650008 -15.662683 -0.011143545 178.78645 
7.4e+009 -0.2078868 -37.021118 -26.491982 -19.434209 -26.491982 -19.434209 -0.011507066 178.74625 
7.5e+009 -0.22107892 -44.80989 -26.309656 -23.382173 -26.309656 -23.382173 -0.011943099 178.70658 
7.6e+009 -0.23629831 -53.009056 -26.10496 -27.532695 -26.10496 -27.532695 -0.012454862 178.6675 
7.7e+009 -0.25373008 -61.677423 -25.880523 -31.913937 -25.880523 -31.913937 -0.013044413 178.62909 
7.8e+009 -0.27351796 -70.877689 -25.639883 -36.555602 -25.639883 -36.555602 -0.013711402 178.59145 
7.9e+009 -0.29571782 -80.674513 -25.387745 -41.487912 -25.387745 -41.487912 -0.014451283 178.55472 
8e+009 -0.32023026 -91.130977 -25.130236 -46.739818 -25.130236 -46.739818 -0.015252963 178.51906 
8.1e+009 -0.34671152 -102.30287 -24.875137 -52.33621 -24.875137 -52.33621 -0.016095979 178.48464 
8.2e+009 -0.37447066 -114.23028 -24.632003 -58.293951 -24.632003 -58.293951 -0.016947691 178.45162 
8.3e+009 -0.40237749 -126.92659 -24.412066 -64.616796 -24.412066 -64.616796 -0.017761471 178.42014 
8.4e+009 -0.42882729 -140.36566 -24.22778 -71.289732 -24.22778 -71.289732 -0.018477437 178.39023 
8.5e+009 -0.45182456 -154.47002 -24.091922 -78.273912 -24.091922 -78.273912 -0.019027482 178.36176 
8.6e+009 -0.46923535 -169.10396 -24.016216 -85.504013 -24.016216 -85.504013 -0.019345428 178.33446 
8.7e+009 -0.4791952 175.9237 -24.009717 -92.889924 -24.009717 -92.889924 -0.019380876 178.30784 
8.8e+009 -0.48056015 160.84439 -24.077305 -100.32382 -24.077305 -100.32382 -0.019112425 178.28132 
8.9e+009 -0.47321642 145.90384 -24.2188 -107.69172 -24.2188 -107.69172 -0.018554589 178.25427 
9e+009 -0.45810026 131.33205 -24.429003 -114.88679 -24.429003 -114.88679 -0.01775486 178.22619 
9.1e+009 -0.43692112 117.31776 -24.698648 -121.82061 -24.698648 -121.82061 -0.016782063 178.19673 
9.2e+009 -0.41172681 103.99389 -25.015928 -128.42984 -25.015928 -128.42984 -0.015711168 178.16575 
9.3e+009 -0.38449313 91.4354 -25.368118 -134.67747 -25.368118 -134.67747 -0.014610266 178.13328 
9.4e+009 -0.35685648 79.666519 -25.742904 -140.54991 -25.742904 -140.54991 -0.013532915 178.09948 
9.5e+009 -0.33001037 68.672822 -26.129257 -146.05182 -26.129257 -146.05182 -0.012515974 178.06454 
9.6e+009 -0.30472268 58.413939 -26.517848 -151.20045 -26.517848 -151.20045 -0.011581204 178.0287 
9.7e+009 -0.28141469 48.834509 -26.901127 -156.02064 -26.901127 -156.02064 -0.010738588 177.99216 
9.8e+009 -0.260256 39.872448 -27.273189 -160.54091 -27.273189 -160.54091 -0.0099899248 177.95508 
9.9e+009 -0.24124994 31.464566 -27.629546 -164.79076 -27.629546 -164.79076 -0.0093318854 177.9176 
1e+010 -0.22430004 23.550039 -27.966862 -168.79893 -27.966862 -168.79893 -0.0087583203 177.87982 
1.01e+010 -0.20925701 16.072306 -28.282707 -172.59244 -28.282707 -172.59244 -0.008261835 177.84182 
1.02e+010 -0.19594973 8.9799203 -28.575348 -176.19604 -28.575348 -176.19604 -0.0078347924 177.80365 
1.03e+010 -0.18420429 2.2267365 -28.843567 -179.6321 -28.843567 -179.6321 -0.0074699008 177.76532 
1.04e+010 -0.17385505 -4.2282818 -29.086522 177.07935 -29.086522 177.07935 -0.0071605282 177.72686 
1.05e+010 -0.1647502 -10.421459 -29.303639 173.9205 -29.303639 173.9205 -0.0069008431 177.68826 
1.06e+010 -0.15675422 -16.38489 -29.494524 170.87551 -29.494524 170.87551 -0.0066858537 177.64952 
1.07e+010 -0.14974837 -22.146947 -29.6589 167.93033 -29.6589 167.93033 -0.0065113934 177.61062 
1.08e+010 -0.14363006 -27.732771 -29.796557 165.07244 -29.796557 165.07244 -0.0063740794 177.57154 
1.09e+010 -0.13831181 -33.16472 -29.907314 162.29065 -29.907314 162.29065 -0.0062712659 177.53225 
1.1e+010 -0.13372002 -38.46279 -29.990988 159.57492 -29.990988 159.57492 -0.006201 177.49272 
1.11e+010 -0.12979373 -43.644984 -30.047373 156.91615 -30.047373 156.91615 -0.0061619893 177.45291 
1.12e+010 -0.12648354 -48.727646 -30.076216 154.30606 -30.076216 154.30606 -0.0061535841 177.41276 
1.13e+010 -0.12375075 -53.72576 -30.077207 151.737 -30.077207 151.737 -0.0061757788 177.37224 
1.14e+010 -0.12156673 -58.653225 -30.049959 149.20183 -30.049959 149.20183 -0.0062292349 177.33129 
1.15e+010 -0.11991255 -63.523106 -29.993996 146.69381 -29.993996 146.69381 -0.0063153306 177.28984 
1.16e+010 -0.11877898 -68.347878 -29.908737 144.20645 -29.908737 144.20645 -0.0064362412 177.24782 
1.17e+010 -0.11816677 -73.139659 -29.793482 141.73341 -29.793482 141.73341 -0.0065950602 177.20515 
1.18e+010 -0.11808746 -77.910452 -29.647398 139.26836 -29.647398 139.26836 -0.0067959697 177.16172 
1.19e+010 -0.11856458 -82.672397 -29.469493 136.80485 -29.469493 136.80485 -0.0070444776 177.11744 
1.2e+010 -0.11963568 -87.438055 -29.258599 134.33617 -29.258599 134.33617 -0.007347744 177.07218 
1.21e+010 -0.12135511 -92.220731 -29.013342 131.85514 -29.013342 131.85514 -0.0077150296 177.02578 
1.22e+010 -0.12379811 -97.034862 -28.732113 129.35396 -28.732113 129.35396 -0.0081583153 176.97807 
1.23e+010 -0.12706656 -101.8965 -28.413021 126.82389 -28.413021 126.82389 -0.0086931641 176.92885 
1.24e+010 -0.13129712 -106.82391 -28.053852 124.25493 -28.053852 124.25493 -0.0093399358 176.87786 
1.25e+010 -0.13667305 -111.8384 -27.652004 121.63542 -27.652004 121.63542 -0.010125519 176.82481 
1.26e+010 -0.14344115 -116.96538 -27.20441 118.9514 -27.20441 118.9514 -0.01108584 176.76932 
1.27e+010 -0.151937 -122.23584 -26.707449 116.18587 -26.707449 116.18587 -0.012269561 176.71096 
1.28e+010 -0.16262268 -127.68842 -26.156822 113.31761 -26.156822 113.31761 -0.013743638 176.64916 
1.29e+010 -0.17614479 -133.37242 -25.547409 110.31963 -25.547409 110.31963 -0.015601837 176.58325 
1.3e+010 -0.19342564 -139.35218 -24.873089 107.1568 -24.873089 107.1568 -0.017978096 176.51236 
1.31e+010 -0.21581023 -145.71371 -24.126523 103.7824 -24.126523 103.7824 -0.021067974 176.43542 
1.32e+010 -0.24531004 -152.57495 -23.298915 100.1328 -23.298915 100.1328 -0.025163956 176.35112 
1.33e+010 -0.28501871 -160.1022 -22.379802 96.119139 -22.379802 96.119139 -0.030714931 176.25787 
1.34e+010 -0.33984082 -168.537 -21.357001 91.614 -21.357001 91.614 -0.038428397 176.15391 
1.35e+010 -0.41779534 -178.24177 -20.217095 86.429765 -20.217095 86.429765 -0.04944736 176.03776 
1.36e+010 -0.53234477 170.22143 -18.947474 80.283317 -18.947474 80.283317 -0.06564867 175.90956 
1.37e+010 -0.7062852 155.95419 -17.54255 72.740912 -17.54255 72.740912 -0.090084803 175.77511 
1.38e+010 -0.9763132 137.49963 -16.020619 63.146463 -16.020619 63.146463 -0.12730507 175.65655 
1.39e+010 -1.3870364 112.58644 -14.464462 50.596481 -14.464462 50.596481 -0.18187524 175.61629 
1.4e+010 -1.9220222 78.408616 -13.093876 34.23693 -13.093876 34.23693 -0.24960331 175.78073 
1.41e+010 -2.3123185 34.52553 -12.291715 14.391426 -12.291715 14.391426 -0.3002541 176.25147 
1.42e+010 -2.1674106 -11.814621 -12.355947 -6.2382098 -12.355947 -6.2382098 -0.29425876 176.84568 
1.43e+010 -1.6650216 -50.58867 -13.147109 -24.255423 -13.147109 -24.255423 -0.2429139 177.23092 
1.44e+010 -1.1977368 -79.322486 -14.265082 -38.392043 -14.265082 -38.392043 -0.18603868 177.35102 
1.45e+010 -0.8744032 -100.42277 -15.413108 -49.206098 -15.413108 -49.206098 -0.14181504 177.32123 
1.46e+010 -0.66578972 -116.52357 -16.459003 -57.655921 -16.459003 -57.655921 -0.11092306 177.23215 
1.47e+010 -0.53108663 -129.41896 -17.362099 -64.509582 -17.362099 -64.509582 -0.089814892 177.12603 
1.48e+010 -0.44253421 -140.2257 -18.118453 -70.289459 -18.118453 -70.289459 -0.075316884 177.01902 
1.49e+010 -0.3834608 -149.64142 -18.736011 -75.33981 -18.736011 -75.33981 -0.065268918 176.91635 
1.5e+010 -0.34404645 -158.1172 -19.225017 -79.891098 -19.225017 -79.891098 -0.058298253 176.81897 
1.51e+010 -0.31848337 -165.95896 -19.594618 -84.103457 -19.594618 -84.103457 -0.053548189 176.72633 
1.52e+010 -0.30335637 -173.38662 -19.851805 -88.094067 -19.851805 -88.094067 -0.050491433 176.63733 
1.53e+010 -0.2967614 179.43007 -20.001175 -91.954601 -20.001175 -91.954601 -0.048817546 176.55074 
1.54e+010 -0.29784962 172.34813 -20.044933 -95.762989 -20.044933 -95.762989 -0.048370102 176.46531 
1.55e+010 -0.30663366 165.23423 -19.982923 -99.592311 -19.982923 -99.592311 -0.049116859 176.37982 
1.56e+010 -0.32398867 157.94946 -19.812599 -103.51871 -19.812599 -103.51871 -0.051144789 176.29301 
1.57e+010 -0.35184925 150.33286 -19.528938 -107.63 -19.528938 -107.63 -0.054678836 176.20366 
1.58e+010 -0.39367417 142.17957 -19.124324 -112.03683 -19.124324 -112.03683 -0.060130169 176.11061 
1.59e+010 -0.45535564 133.20756 -18.588578 -116.88918 -18.588578 -116.88918 -0.068188145 176.013 
1.6e+010 -0.54693194 123.00265 -17.909565 -122.40234 -17.909565 -122.40234 -0.079980134 175.91106 
1.61e+010 -0.68575195 110.92195 -17.075617 -128.89941 -17.075617 -128.89941 -0.097323896 175.80799 
1.62e+010 -0.90188102 95.9216 -16.083105 -136.87827 -16.083105 -136.87827 -0.12302056 175.71515 
1.63e+010 -1.244189 76.264559 -14.957614 -147.09836 -14.957614 -147.09836 -0.1606691 175.66454 
1.64e+010 -1.7673486 49.171544 -13.805937 -160.59666 -13.805937 -160.59666 -0.21160368 175.7318 
1.65e+010 -2.4079311 11.305044 -12.904846 -178.24204 -12.904846 -178.24204 -0.26333091 176.03581 
1.66e+010 -2.7099734 -36.643299 -12.698648 160.76591 -12.698648 160.76591 -0.27837339 176.57852 
1.67e+010 -2.2903804 -83.927667 -13.434768 139.91062 -13.434768 139.91062 -0.23558393 177.05559 
1.68e+010 -1.6229286 -120.61698 -14.842228 122.56515 -14.842228 122.56515 -0.17057929 177.23385 
1.69e+010 -1.1134696 -146.72513 -16.481146 109.38879 -16.481146 109.38879 -0.11739344 177.19728 
1.7e+010 -0.78897504 -165.60448 -18.087134 99.476148 -18.087134 99.476148 -0.081658349 177.07956 
1.71e+010 -0.58664845 -179.92092 -19.561008 91.803401 -19.561008 91.803401 -0.058700753 176.94679 
1.72e+010 -0.45729963 168.67118 -20.880877 85.63054 -20.880877 85.63054 -0.043798961 176.82137 
1.73e+010 -0.37170679 159.17916 -22.052428 80.475573 -22.052428 80.475573 -0.033857361 176.70858 
1.74e+010 -0.31322777 150.9942 -23.08889 76.028178 -23.08889 76.028178 -0.027020287 176.60814 
1.75e+010 -0.27224312 143.72866 -24.003966 72.084574 -24.003966 72.084574 -0.022183238 176.5183 
1.76e+010 -0.2430259 137.12537 -24.809618 68.50674 -24.809618 68.50674 -0.018676206 176.43719 
1.77e+010 -0.22206282 131.00649 -25.515588 65.197814 -25.515588 65.197814 -0.016081782 176.36315 
1.78e+010 -0.20714702 125.24365 -26.129479 62.087136 -26.129479 62.087136 -0.014132779 176.29486 
1.79e+010 -0.19687672 119.73987 -26.656983 59.120911 -26.656983 59.120911 -0.012653958 176.23122 
1.8e+010 -0.19037245 114.41807 -27.102099 56.256138 -27.102099 56.256138 -0.011528165 176.17138 
1.81e+010 -0.18711696 109.21328 -27.467309 53.45644 -27.467309 53.45644 -0.010676202 176.11465 
1.82e+010 -0.18686863 104.06694 -27.753679 50.688978 -27.753679 50.688978 -0.010044687 176.06047 
1.83e+010 -0.18962384 98.922249 -27.960896 47.921892 -27.960896 47.921892 -0.0095987155 176.00837 
1.84e+010 -0.19561851 93.719683 -28.087233 45.121868 -28.087233 45.121868 -0.0093176131 175.95794 
1.85e+010 -0.20536972 88.392082 -28.129436 42.251441 -28.129436 42.251441 -0.0091928736 175.90886 
1.86e+010 -0.21976982 82.858329 -28.082533 39.265583 -28.082533 39.265583 -0.0092279476 175.8608 
1.87e+010 -0.24026225 77.014383 -27.939541 36.10691 -27.939541 36.10691 -0.0094399952 175.81349 
1.88e+010 -0.2691587 70.719485 -27.691077 32.698412 -27.691077 32.698412 -0.0098642739 175.76665 
1.89e+010 -0.31021766 63.77365 -27.324912 28.931838 -27.324912 28.931838 -0.01056265 175.72005 
1.9e+010 -0.36972984 55.878993 -26.825595 24.648258 -26.825595 24.648258 -0.01163908 175.6735 
1.91e+010 -0.45861749 46.5701 -26.174687 19.604421 -26.174687 19.604421 -0.013266864 175.627 
1.92e+010 -0.59655524 35.083428 -25.353217 13.413466 -25.353217 13.413466 -0.015733168 175.58106 
1.93e+010 -0.81964801 20.107152 -24.351377 5.4432518 -24.351377 5.4432518 -0.01949144 175.53766 
1.94e+010 -1.1901371 -0.67366621 -23.200017 -5.3280123 -23.200017 -5.3280123 -0.025106232 175.50272 
1.95e+010 -1.7739601 -31.116883 -22.056878 -20.337038 -22.056878 -20.337038 -0.03251119 175.49045 
1.96e+010 -2.4174799 -75.292436 -21.351658 -40.543683 -21.351658 -40.543683 -0.038440125 175.51916 
1.97e+010 -2.4498385 -128.54342 -21.681859 -63.768998 -21.681859 -63.768998 -0.036249443 175.57032 
1.98e+010 -1.8068254 -174.5204 -23.113441 -84.689067 -23.113441 -84.689067 -0.026930486 175.58548 
1.99e+010 -1.187518 153.45146 -25.080448 -100.43516 -25.080448 -100.43516 -0.018007946 175.55649 
2e+010 -0.79412191 131.77349 -27.105154 -111.67487 -27.105154 -111.67487 -0.012113033 175.50917 

!Noise Parameters
!Freq  NFmin(dB)  Mag(GammaOpt)  Ang(GammaOpt)(deg)  rn(normalized)
0 8.2593483e-005 0.98938347 0 0.0017818325
100000 0.00056496197 0.92970688 0.01569505 0.0017855968
1000000 0.0017947195 0.79398804 0.15875133 0.0017993206
1e+008 0.020860469 0.080399095 151.23306 0.0020921862
2e+008 0.032656562 0.25570918 174.71684 0.0022372461
3e+008 0.043559674 0.35883868 -179.1075 0.0023668404
4e+008 0.054191633 0.42881519 -174.44772 0.0025249527
5e+008 0.064728128 0.48005005 -170.27969 0.0027515423
6e+008 0.075213153 0.51927622 -166.34483 0.0030881244
7e+008 0.085638702 0.55018153 -162.54153 0.003577898
8e+008 0.095973256 0.57499564 -158.81855 0.0042644062
9e+008 0.10617389 0.59516017 -155.14539 0.0051896865
1e+009 0.11619214 0.61165308 -151.50161 0.0063922412
1.1e+009 0.12597734 0.62516144 -147.87223 0.0079049852
1.2e+009 0.13547874 0.63618024 -144.24548 0.0097532747
1.3e+009 0.144647 0.64507211 -140.6115 0.011953108
1.4e+009 0.15343536 0.65210509 -136.96171 0.014509578
1.5e+009 0.16180053 0.65747725 -133.28822 0.017415656
1.6e+009 0.1697034 0.66133322 -129.5836 0.020651363
1.7e+009 0.17710958 0.66377541 -125.84058 0.024183389
1.8e+009 0.18398989 0.66487172 -122.05188 0.027965198
1.9e+009 0.19032068 0.66466067 -118.21006 0.031937629
2e+009 0.1960842 0.66315483 -114.30739 0.036030008
2.1e+009 0.20126879 0.66034287 -110.33571 0.04016175
2.2e+009 0.20586913 0.65619049 -106.28635 0.044244422
2.3e+009 0.20988644 0.65064067 -102.14997 0.048184207
2.4e+009 0.2133286 0.64361301 -97.916509 0.051884722
2.5e+009 0.21621031 0.63500268 -93.57507 0.055250092
2.6e+009 0.21855317 0.62467889 -89.11383 0.058188195
2.7e+009 0.22038574 0.61248303 -84.519991 0.06061398
2.8e+009 0.22174356 0.59822695 -79.779752 0.062452744
2.9e+009 0.22266907 0.58169145 -74.878337 0.063643262
3e+009 0.22321147 0.56262587 -69.800112 0.064140658
3.1e+009 0.22342644 0.54074934 -64.528812 0.063918909
3.2e+009 0.22337575 0.51575507 -59.047947 0.062972885
3.3e+009 0.22312661 0.4873191 -53.341425 0.061319831
3.4e+009 0.2227509 0.45511546 -47.394464 0.059000232
3.5e+009 0.22232406 0.41883975 -41.194852 0.056077975
3.6e+009 0.22192371 0.37824259 -34.734579 0.052639804
3.7e+009 0.22162805 0.33317333 -28.011842 0.048794016
3.8e+009 0.22151387 0.28363155 -21.033386 0.044668438
3.9e+009 0.22165445 0.22982003 -13.817231 0.040407675
4e+009 0.22211727 0.17218847 -6.3966791 0.036169719
4.1e+009 0.22296175 0.1114539 1.1676264 0.032121959
4.2e+009 0.22423718 0.04858478 8.6847748 0.028436715
4.3e+009 0.22598097 0.015266514 -161.65335 0.025286382
4.4e+009 0.22821745 0.078830114 -154.91727 0.022838345
4.5e+009 0.23095721 0.14088867 -147.22365 0.021249776
4.6e+009 0.23419723 0.20034531 -139.55228 0.020662489
4.7e+009 0.23792157 0.25632621 -131.99951 0.021197996
4.8e+009 0.24210265 0.30822008 -124.61065 0.022952932
4.9e+009 0.24670302 0.35567837 -117.41138 0.025994982
5e+009 0.25167733 0.39858377 -110.41403 0.030359477
5.1e+009 0.25697441 0.43700096 -103.62063 0.036046767
5.2e+009 0.2625394 0.47112295 -97.025388 0.043020496
5.3e+009 0.26831562 0.5012219 -90.616877 0.051206862
5.4e+009 0.2742464 0.52760919 -84.379878 0.060494919
5.5e+009 0.28027647 0.55060585 -78.296831 0.070737971
5.6e+009 0.28635331 0.57052246 -72.348932 0.081756038
5.7e+009 0.29242805 0.58764673 -66.516883 0.093339395
5.8e+009 0.29845633 0.60223661 -60.781391 0.1052531
5.9e+009 0.30439882 0.61451735 -55.123442 0.11724242
6e+009 0.31022167 0.62468097 -49.524427 0.12903907
6.1e+009 0.31589673 0.63288718 -43.96615 0.14036806
6.2e+009 0.32140171 0.63926504 -38.430757 0.15095501
6.3e+009 0.32672017 0.64391485 -32.900599 0.16053374
6.4e+009 0.33184143 0.64691007 -27.358055 0.16885395
6.5e+009 0.33676041 0.6482991 -21.785313 0.17568872
6.6e+009 0.34147739 0.64810682 -16.164125 0.18084163
6.7e+009 0.34599762 0.64633591 -10.475517 0.18415333
6.8e+009 0.35033094 0.64296806 -4.6994618 0.18550731
6.9e+009 0.35449131 0.63796514 1.1854936 0.18483469
7e+009 0.35849625 0.63127051 7.2026771 0.18211783
7.1e+009 0.36236621 0.62281073 13.377822 0.17739272
7.2e+009 0.36612396 0.61249803 19.739719 0.1707499
7.3e+009 0.36979385 0.60023398 26.321037 0.16233398
7.4e+009 0.37340108 0.58591517 33.159373 0.15234162
7.5e+009 0.37697098 0.56944157 40.298622 0.14101807
7.6e+009 0.38052821 0.55072909 47.79081 0.12865219
7.7e+009 0.38409608 0.52972772 55.698549 0.11557024
7.8e+009 0.38769582 0.50644755 64.098359 0.10212843
7.9e+009 0.39134598 0.48099518 73.085064 0.088704397
8e+009 0.39506183 0.45362389 82.777338 0.075687949
8.1e+009 0.39885493 0.42480081 93.323842 0.063471177
8.2e+009 0.40273278 0.39529338 104.90758 0.052438263
8.3e+009 0.40669854 0.36627128 117.74178 0.042955247
8.4e+009 0.41075097 0.33940171 132.04194 0.035360023
8.5e+009 0.41488441 0.31687234 147.94878 0.029952873
8.6e+009 0.4190889 0.30120767 165.38461 0.026987773
8.7e+009 0.42335044 0.29472935 -176.10402 0.026664771
8.8e+009 0.42765127 0.29873862 -157.34681 0.029123631
8.9e+009 0.43197035 0.3129334 -139.27094 0.034438974
9e+009 0.43628373 0.33557569 -122.53616 0.042617051
9.1e+009 0.44056514 0.36423699 -107.39566 0.053594286
9.2e+009 0.44478648 0.39651831 -93.800965 0.067237641
9.3e+009 0.44891835 0.43042769 -81.566083 0.083346834
9.4e+009 0.4529306 0.46447065 -70.477144 0.10165836
9.5e+009 0.45679284 0.49760264 -60.340719 0.12185124
9.6e+009 0.46047491 0.52914039 -50.996837 0.14355437
9.7e+009 0.4639473 0.55867386 -42.317443 0.16635519
9.8e+009 0.46718158 0.58599143 -34.200645 0.18980967
9.9e+009 0.47015071 0.61102064 -26.564811 0.21345301
1e+010 0.47282938 0.63378274 -19.343711 0.23681108
1.01e+010 0.47519423 0.65435884 -12.482842 0.25941212
1.02e+010 0.47722404 0.67286537 -5.9367245 0.28079837
1.03e+010 0.47889992 0.68943668 0.33307013 0.30053736
1.04e+010 0.48020542 0.70421316 6.3593647 0.31823251
1.05e+010 0.48112658 0.71733325 12.170455 0.33353277
1.06e+010 0.48165202 0.7289285 17.790925 0.34614096
1.07e+010 0.4817729 0.73912055 23.24228 0.35582064
1.08e+010 0.481483 0.74801957 28.543439 0.36240133
1.09e+010 0.4807786 0.75572356 33.711137 0.36578182
1.1e+010 0.47965853 0.76231832 38.760239 0.36593167
1.11e+010 0.47812407 0.76787771 43.704011 0.3628907
1.12e+010 0.47617894 0.77246411 48.55433 0.35676659
1.13e+010 0.47382923 0.77612896 53.321867 0.34773067
1.14e+010 0.47108336 0.7789133 58.016236 0.33601205
1.15e+010 0.46795207 0.7808483 62.646111 0.32189022
1.16e+010 0.46444834 0.78195567 67.219323 0.30568651
1.17e+010 0.46058742 0.78224807 71.742938 0.2877545
1.18e+010 0.4563868 0.78172934 76.22331 0.26846982
1.19e+010 0.4518662 0.78039481 80.666108 0.24821965
1.2e+010 0.44704759 0.77823139 85.076331 0.22739219
1.21e+010 0.44195521 0.77521777 89.458293 0.20636649
1.22e+010 0.43661554 0.77132463 93.815576 0.18550289
1.23e+010 0.43105736 0.76651483 98.150961 0.16513442
1.24e+010 0.4253117 0.76074391 102.46631 0.14555935
1.25e+010 0.41941182 0.75396078 106.76242 0.12703518
1.26e+010 0.41339314 0.74610887 111.0388 0.10977405
1.27e+010 0.40729315 0.73712791 115.29339 0.09393995
1.28e+010 0.40115125 0.72695654 119.52227 0.079647426
1.29e+010 0.39500849 0.71553618 123.71917 0.066962067
1.3e+010 0.38890732 0.70281626 127.87504 0.055902496
1.31e+010 0.38289117 0.68876138 131.97747 0.046443816
1.32e+010 0.37700398 0.67336054 136.0101 0.038522289
1.33e+010 0.37128961 0.65663856 139.95208 0.032041052
1.34e+010 0.36579119 0.63866946 143.77766 0.026876574
1.35e+010 0.36055034 0.61959107 147.45612 0.022885603
1.36e+010 0.35560638 0.59961927 150.95225 0.019912287
1.37e+010 0.35099542 0.57905915 154.22775 0.017795192
1.38e+010 0.34674956 0.5583097 157.2439 0.016373933
1.39e+010 0.34289602 0.5378574 159.96579 0.015495161
1.4e+010 0.33945646 0.51825471 162.36802 0.0150177
1.41e+010 0.3364464 0.50008062 164.44142 0.014816646
1.42e+010 0.33387484 0.48388492 166.19923 0.01478632
1.43e+010 0.33174418 0.47012283 167.68084 0.014842001
1.44e+010 0.33005032 0.459093 168.95049 0.014920442
1.45e+010 0.32878316 0.4508948 170.09031 0.014979218
1.46e+010 0.32792728 0.44541753 171.1884 0.014995023
1.47e+010 0.32746293 0.4423655 172.32555 0.014961076
1.48e+010 0.32736721 0.44131134 173.56423 0.014883842
1.49e+010 0.3276154 0.44176236 174.94274 0.014779317
1.5e+010 0.32818241 0.44322446 176.47466 0.014669124
1.51e+010 0.32904418 0.44525291 178.15232 0.014576707
1.52e+010 0.33017911 0.44748649 179.95203 0.014523872
1.53e+010 0.33156929 0.44966667 -178.1603 0.014527928
1.54e+010 0.33320169 0.4516459 -176.22425 0.014599632
1.55e+010 0.33506896 0.45338898 -174.28071 0.014742095
1.56e+010 0.33717012 0.45497039 -172.36834 0.014950767
1.57e+010 0.33951087 0.45656805 -170.52014 0.015214513
1.58e+010 0.34210356 0.45845274 -168.75996 0.015517761
1.59e+010 0.34496691 0.46097035 -167.09888 0.015843609
1.6e+010 0.34812524 0.46451443 -165.53189 0.016177693
1.61e+010 0.35160747 0.46948717 -164.03573 0.016512572
1.62e+010 0.35544575 0.47625032 -162.56916 0.016852329
1.63e+010 0.3596738 0.48507229 -161.07632 0.017217005
1.64e+010 0.36432506 0.49608126 -159.49365 0.01764652
1.65e+010 0.36943075 0.50923606 -157.75872 0.018203647
1.66e+010 0.37501782 0.52432299 -155.81909 0.018975702
1.67e+010 0.38110712 0.54097968 -153.63872 0.02007458
1.68e+010 0.38771171 0.5587397 -151.2007 0.02163487
1.69e+010 0.39483553 0.57708653 -148.50613 0.023809848
1.7e+010 0.40247249 0.59550519 -145.57053 0.026765262
1.71e+010 0.41060606 0.61352277 -142.41891 0.030670935
1.72e+010 0.41920943 0.63073406 -139.08108 0.035690359
1.73e+010 0.42824611 0.64681212 -135.58769 0.041968601
1.74e+010 0.4376712 0.66150676 -131.96747 0.04961898
1.75e+010 0.447433 0.67463462 -128.24548 0.058709129
1.76e+010 0.4574752 0.68606444 -124.44228 0.069247203
1.77e+010 0.4677393 0.69570034 -120.57365 0.081169082
1.78e+010 0.47816754 0.70346494 -116.65074 0.094327539
1.79e+010 0.48870593 0.70928293 -112.68037 0.10848438
1.8e+010 0.4993077 0.71306545 -108.66542 0.12330662
1.81e+010 0.50993687 0.71469445 -104.6053 0.13836764
1.82e+010 0.52057203 0.71400639 -100.49632 0.15315435
1.83e+010 0.53121029 0.71077398 -96.332216 0.16708112
1.84e+010 0.54187131 0.70468453 -92.104754 0.1795111
1.85e+010 0.55260137 0.69531353 -87.804771 0.1897854
1.86e+010 0.56347735 0.68209209 -83.424032 0.19726024
1.87e+010 0.57461043 0.66426843 -78.958828 0.20135181
1.88e+010 0.58614936 0.64086667 -74.417132 0.20158855
1.89e+010 0.59828289 0.61065568 -69.833095 0.19766966
1.9e+010 0.61124113 0.57216209 -65.297133 0.18952885
1.91e+010 0.62529534 0.52381276 -61.020341 0.17740152
1.92e+010 0.64075589 0.46440883 -57.477883 0.16189337
1.93e+010 0.65796798 0.39441726 -55.73938 0.14404831
1.94e+010 0.67730514 0.3192943 -58.1941 0.12541277
1.95e+010 0.69916054 0.25732043 -69.247644 0.10809387
1.96e+010 0.72393671 0.24588936 -89.609454 0.094808375
1.97e+010 0.75203448 0.30326078 -105.69314 0.088919472
1.98e+010 0.78384221 0.39790261 -110.76204 0.094458463
1.99e+010 0.81972654 0.49801184 -109.23688 0.11612863
2e+010 0.86002569 0.58843293 -104.83811 0.15928877
