! Created Thu Oct 05 12:25:15 2017
! List of port names and net name(s): example Port n = <port_name> <net_name1> <net_name2> ...
! Port 1 = P1 P1 
! Port 2 = P2 P3 
# hz S ma R 50
! 2 Port Network Data from data block
! freq  magS11  angS11  magS21  angS21  magS12  angS12  magS22  angS22  
!     
                 0                 1   -3.69341324e-008         6.395e-010         89.9998236         6.395e-010         89.9998236                  1   -4.19596688e-008
        4.34027778                 1   -1.60304404e-007        2.7756e-009         89.9999552        2.7756e-009         89.9999552                  1   -1.82116618e-007
        43.4027778                 1   -1.60304403e-006        2.7756e-008         89.9999518        2.7756e-008         89.9999518                  1   -1.82116618e-006
        434.027778                 1   -1.60304403e-005        2.7756e-007         89.9995575        2.7756e-007         89.9995575                  1   -1.82116618e-005
        4340.27778                 1    -0.000160304402    2.77560001e-006          89.995579    2.77560001e-006          89.995579                  1    -0.000182116617
        43402.7778        0.99999998     -0.00160304318    2.77560083e-005         89.9557896    2.77560083e-005         89.9557896        0.999999977     -0.00182116521
        434027.778       0.999998017       -0.016029587     0.000277558261         89.5579302     0.000277558261         89.5579302        0.999997748      -0.0182106879
        4340277.78        0.99980282       -0.159455808      0.00276750274         85.5875438      0.00276750274         85.5875438        0.999776096       -0.181148205
        8680555.56       0.999224558       -0.313932448      0.00548752397         81.2254983      0.00548752397         81.2254983        0.999119643       -0.356615482
        13020833.3       0.998302878       -0.458985597      0.00811617897         76.9604602      0.00811617897         76.9604602        0.998073889       -0.521337015
        17361111.1       0.997093939       -0.591124306       0.0106170058         72.8329552       0.0106170058         72.8329552        0.996703239       -0.671344963
        21701388.9       0.995664438       -0.708038341       0.0129630724         68.8761429       0.0129630724         68.8761429        0.995084027       -0.804027459
        26041666.7       0.994083501        -0.80862096       0.0151375691         65.1140148       0.0151375691         65.1140148        0.993295178       -0.918151051
        30381944.4       0.992416003       -0.892827248        0.017131315         61.5610905        0.017131315         61.5610905        0.991410531        -1.01369408
        34722222.2       0.990718101       -0.961435654       0.0189435845         58.2228856       0.0189435845         58.2228856        0.989489565        -1.09156359
          39062500       0.989025421        -1.01576714       0.0205803612         55.0998938       0.0205803612         55.0998938         0.98759007        -1.15331498
        43402777.8       0.987398172        -1.05748653       0.0220513584         52.1915588       0.0220513584         52.1915588        0.985746486        -1.20081876
        47743055.6       0.985837847        -1.08834125       0.0233686439         49.4861988       0.0233686439         49.4861988        0.983988985        -1.23610313
        52083333.4       0.984364738        -1.11005487       0.0245447908         46.9728862       0.0245447908         46.9728862        0.982337943        -1.26110855
        56423611.1       0.982979233        -1.12427056       0.0255935218         44.6422424       0.0255935218         44.6422424         0.98079384        -1.27764388
        60763888.9       0.981701706        -1.13233019       0.0265294442         42.4794024       0.0265294442         42.4794024        0.979357177        -1.28730134
        65104166.7       0.980522551        -1.13550389       0.0273642213         40.4707081       0.0273642213         40.4707081        0.978028481         -1.2915702
        69444444.5       0.979432151        -1.13495439       0.0281097271         38.6076025       0.0281097271         38.6076025         0.97681818        -1.29158665
        73784722.2       0.978440762        -1.13141894       0.0287746001          36.875473       0.0287746001          36.875473        0.975696663        -1.28837249
          78125000       0.977528654        -1.12567436       0.0293699557         35.2625934       0.0293699557         35.2625934        0.974674228        -1.28266831
        82465277.8       0.976686034        -1.11831383       0.0299050197         33.7607414       0.0299050197         33.7607414        0.973741178        -1.27524581
        86805555.6       0.975923106        -1.10991035       0.0303846791         32.3599756       0.0303846791         32.3599756        0.972887706        -1.26658616
        91145833.4       0.975219957        -1.10072108       0.0308166161         31.0504861       0.0308166161         31.0504861        0.972103975        -1.25711361
        95486111.1       0.974586687        -1.09102869       0.0312051852         29.8250458       0.0312051852         29.8250458        0.971390124        -1.24718206
        99826388.9       0.974003417        -1.08120938       0.0315580529         28.6774026       0.0315580529         28.6774026        0.970736244        -1.23704142
         104166667       0.973460188        -1.07139313        0.031877207         27.5988164        0.031877207         27.5988164        0.970142425        -1.22692933
         108506945       0.972967015        -1.06162912       0.0321658398         26.5849663       0.0321658398         26.5849663         0.96958869         -1.2169319
         112847222       0.972513975        -1.05216539       0.0324299847         25.6303024       0.0324299847         25.6303024        0.969085121        -1.20727454
         117187500       0.972101063         -1.0430035       0.0326704836         24.7310452       0.0326704836         24.7310452        0.968621717        -1.19797167
         121527778       0.971718298         -1.0342146       0.0328897355         23.8809477       0.0328897355         23.8809477        0.968188499        -1.18909639
         125868056       0.971365694         -1.0258589       0.0330898212         23.0767254       0.0330898212         23.0767254         0.96779548        -1.18069709
         130208333       0.971033249        -1.01794814       0.0332742355         22.3165396       0.0332742355         22.3165396        0.967432681        -1.17284674
         134548611       0.970730978        -1.01053188       0.0334441366         21.5933525       0.0334441366         21.5933525        0.967100077        -1.16548746
         138888889       0.970448877        -1.00362161       0.0335991647         20.9071213       0.0335991647         20.9071213        0.966787707        -1.15875093
         147569445       0.969955121       -0.991135067       0.0338757365         19.6347103       0.0338757365         19.6347103        0.966223555        -1.14685372
         156250000       0.969522002       -0.980643333        0.034112447          18.476909        0.034112447          18.476909        0.965740182        -1.13710263
         164930556        0.96913945        -0.97198375       0.0343157849         17.4195639       0.0343157849         17.4195639        0.965317555         -1.1294674
         173611111       0.968807418       -0.965041578       0.0344928771         16.4499281       0.0344928771         16.4499281        0.964955599        -1.12377414
         182291667        0.96851588        -0.95977043       0.0346463434         15.5572714       0.0346463434         15.5572714        0.964624272        -1.11994219
         190972222       0.968264762       -0.955935815       0.0347813455         14.7316064       0.0347813455         14.7316064        0.964343506        -1.11777242
         199652778        0.96803406        -0.95355903       0.0348996175         13.9656863       0.0348996175         13.9656863        0.964083282        -1.11724199
         208333333       0.967833739       -0.952513043       0.0350042196         13.2527228       0.0350042196         13.2527228         0.96385354        -1.11816234
         225694445       0.967484053       -0.953805023       0.0351790076         11.9628265       0.0351790076         11.9628265        0.963465337        -1.12384715
         243055556       0.967205528       -0.959174934       0.0353184295         10.8245859       0.0353184295         10.8245859        0.963148689         -1.1341531
         260416667          0.966968       -0.968003473       0.0354300307         9.80980115       0.0354300307         9.80980115        0.962883364        -1.14827342
         277777778       0.966771344        -0.97975876       0.0355213651         8.89669534       0.0355213651         8.89669534        0.962669244        -1.16573296
         295138889       0.966605468       -0.994036511       0.0355953377         8.06825313       0.0355953377         8.06825313        0.962476181        -1.18597297
         312500000         0.9664703        -1.01048102       0.0356558952         7.31117458       0.0356558952         7.31117458        0.962314096        -1.20862408
         329861111       0.966345766        -1.02875723       0.0357066647         6.61434062       0.0357066647         6.61434062         0.96217293        -1.23340047
         347222222        0.96623184        -1.04868738       0.0357478524         5.96959298       0.0357478524         5.96959298        0.962042602        -1.25995731
         364583333       0.966138476        -1.07002316        0.035782003         5.36930646        0.035782003         5.36930646        0.961923062        -1.28805624
         381944445       0.966045627        -1.09254904       0.0358109903         4.80756805       0.0358109903         4.80756805        0.961824299        -1.31756408
         399305556       0.965973313        -1.11624221       0.0358339314         4.27998526       0.0358339314         4.27998526        0.961726286        -1.34832872
         416666667       0.965901463        -1.14082853       0.0358520826         3.78213016       0.0358520826         3.78213016        0.961648977        -1.38014309
         451388889       0.965769188        -1.19255029       0.0358777658         2.86248498       0.0358777658         2.86248498        0.961486388        -1.44648288
         486111111       0.965668714        -1.24703551       0.0358924437         2.02631045       0.0358924437         2.02631045        0.961346455        -1.51591164
         520833334       0.965569956        -1.30372698       0.0358976459         1.25753052       0.0358976459         1.25753052        0.961219066        -1.58778699
         555555556       0.965472879        -1.36226917       0.0358956171        0.543857795       0.0358956171        0.543857795        0.961104171        -1.66169006
         598958334       0.965373797        -1.43745093       0.0358854438       -0.284967714       0.0358854438       -0.284967714        0.960961435        -1.75630315
         642361111       0.965267226        -1.51456243       0.0358660959        -1.05638506       0.0358660959        -1.05638506         0.96082242        -1.85297051
         685763889       0.965173123        -1.59321718       0.0358413103        -1.78080306       0.0358413103        -1.78080306         0.96068706        -1.95127494
         729166667       0.965081423          -1.673074       0.0358111753        -2.46643127       0.0358111753        -2.46643127        0.960555315        -2.05091821
         772569445       0.964992118        -1.75395472       0.0357750096        -3.11945547       0.0357750096        -3.11945547        0.960417121        -2.15162436
         815972222       0.964895189        -1.83570017       0.0357352893        -3.74453738       0.0357352893        -3.74453738        0.960272454        -2.25321732
         859375000       0.964800594        -1.91811476       0.0356916206        -4.34586184       0.0356916206        -4.34586184        0.960131299        -2.35555607
         902777778       0.964708344         -2.0011389       0.0356436792        -4.92650247       0.0356436792        -4.92650247        0.959993552        -2.45840161
         989583334       0.964510807        -2.16864419       0.0355379756        -6.03529299       0.0355379756        -6.03529299         0.95968836        -2.66554301
   1.07638889e+009       0.964302431        -2.33757119         0.03542057        -7.08641384         0.03542057        -7.08641384        0.959376547         -2.8738277
   1.16319445e+009       0.964093062        -2.50742697       0.0352922876        -8.09077314       0.0352922876        -8.09077314        0.959047948        -3.08287834
         1.25e+009        0.96386267        -2.67803212       0.0351531851        -9.05599631       0.0351531851        -9.05599631        0.958702288        -3.29229179
   1.42361111e+009       0.963378297        -3.02040839       0.0348465933        -10.8905697       0.0348465933        -10.8905697        0.957958844        -3.71119025
   1.59722222e+009       0.962848436        -3.36333672       0.0345075394        -12.6189088       0.0345075394        -12.6189088         0.95715416        -4.12886275
   1.77083333e+009       0.962282216        -3.70594915       0.0341377297        -14.2591527       0.0341377297        -14.2591527        0.956286332        -4.54439368
   1.94444445e+009       0.961668809        -4.04774408       0.0337432243        -15.8208004       0.0337432243        -15.8208004        0.955383313        -4.95700962
   2.11805556e+009       0.961027395        -4.38833472       0.0333255584        -17.3111942       0.0333255584        -17.3111942        0.954423168        -5.36634452
   2.29166667e+009       0.960347089        -4.72745314       0.0328893992        -18.7335338       0.0328893992        -18.7335338        0.953433939        -5.77200353
   2.46527778e+009       0.959637176        -5.06497795       0.0324360894        -20.0925203       0.0324360894        -20.0925203        0.952413003        -6.17337574
   2.63888889e+009       0.958906787        -5.40071419       0.0319706997        -21.3877468       0.0319706997        -21.3877468        0.951380876        -6.57156699
       2.8125e+009       0.958145376        -5.73475089       0.0314953077        -22.6226637       0.0314953077        -22.6226637        0.950324323        -6.96565679
   2.98611111e+009       0.957371627        -6.06664457       0.0310119464        -23.7985358       0.0310119464        -23.7985358        0.949252993        -7.35620284
   3.15972222e+009       0.956576019        -6.39707635       0.0305233144        -24.9177812       0.0305233144        -24.9177812        0.948185359        -7.74306756
   3.33333333e+009       0.955766698        -6.72535141       0.0300324163         -25.978044       0.0300324163         -25.978044        0.947110138        -8.12633801
   3.54166667e+009         0.9547673        -7.11749857       0.0294417592        -27.1786313       0.0294417592        -27.1786313        0.945828491        -8.58132724
         3.75e+009       0.953763916        -7.50659411       0.0288531057        -28.2979314       0.0288531057        -28.2979314        0.944551441        -9.03191288
   3.95833333e+009        0.95273831        -7.89400849       0.0282689542        -29.3434006       0.0282689542        -29.3434006        0.943296764        -9.47789972
   4.16666667e+009       0.951708131        -8.27901245       0.0276921174        -30.3133292       0.0276921174        -30.3133292        0.942054332        -9.91996998
        4.375e+009       0.950662549        -8.66171245       0.0271249836        -31.2111771       0.0271249836        -31.2111771        0.940832268         -10.358009
   4.58333333e+009       0.949621985        -9.04254336       0.0265681099        -32.0408155       0.0265681099        -32.0408155        0.939640529        -10.7924841
   4.79166667e+009       0.948564318        -9.42111216       0.0260243968        -32.8009706       0.0260243968        -32.8009706        0.938469711        -11.2240835
            5e+009       0.947501929        -9.79853773       0.0254936141        -33.4949642       0.0254936141        -33.4949642        0.937328343        -11.6526694
   5.20833333e+009       0.946442384        -10.1741358       0.0249786013        -34.1277665       0.0249786013        -34.1277665        0.936205341        -12.0783434
   5.41666667e+009       0.945365292        -10.5481353        0.024478559        -34.6995946        0.024478559        -34.6995946        0.935111384        -12.5015598
        5.625e+009       0.944301356        -10.9208189       0.0239942502         -35.211511       0.0239942502         -35.211511        0.934045399        -12.9222943
   5.83333333e+009       0.943218637        -11.2919437       0.0235269575        -35.6701691       0.0235269575        -35.6701691        0.933008624        -13.3411216
   6.04166667e+009        0.94214791        -11.6617696       0.0230766299        -36.0733741       0.0230766299        -36.0733741        0.931997831        -13.7574218
         6.25e+009       0.941059283        -12.0306742       0.0226442778        -36.4265927       0.0226442778        -36.4265927         0.93100716        -14.1725185
   6.45833333e+009       0.939971869        -12.3984293       0.0222284651        -36.7312234       0.0222284651        -36.7312234        0.930045705        -14.5862481
   6.66666667e+009       0.938885171         -12.765045       0.0218314468        -36.9885234       0.0218314468        -36.9885234        0.929110244        -14.9979937
   7.08333333e+009       0.936702244        -13.4950433       0.0210884273        -37.3774268       0.0210884273        -37.3774268        0.927295975        -15.8183419
          7.5e+009         0.9344995        -14.2215275       0.0204165381        -37.6175283       0.0204165381        -37.6175283        0.925569224        -16.6333109
   7.91666667e+009       0.932283401        -14.9444813       0.0198106145         -37.726592       0.0198106145         -37.726592        0.923912116        -17.4443656
   8.33333333e+009       0.930043819        -15.6647895       0.0192715701        -37.7297426       0.0192715701        -37.7297426        0.922333585        -18.2518645
         8.75e+009       0.927797305        -16.3822567       0.0187935628        -37.6546554       0.0187935628        -37.6546554        0.920798628         -19.055769
   9.16666667e+009        0.92551905        -17.0967665       0.0183723617         -37.514211       0.0183723617         -37.514211        0.919320112        -19.8570706
   9.58333333e+009       0.923228352        -17.8086971       0.0180046001        -37.3376988       0.0180046001        -37.3376988        0.917891889        -20.6551854
            1e+010       0.920922634        -18.5181712       0.0176841901         -37.135574       0.0176841901         -37.135574        0.916505346        -21.4509366
   1.04166667e+010       0.918589963        -19.2255226       0.0174060093        -36.9291487       0.0174060093        -36.9291487         0.91514886        -22.2445986
   1.08333333e+010       0.916237457        -19.9306954       0.0171640539        -36.7263581       0.0171640539        -36.7263581        0.913830863        -23.0345947
        1.125e+010       0.913868636        -20.6330208       0.0169550867           -36.5367       0.0169550867           -36.5367        0.912537978        -23.8226195
   1.16666667e+010       0.911478755        -21.3340232        0.016774475        -36.3635547        0.016774475        -36.3635547        0.911268199        -24.6087515
   1.20833333e+010       0.909080798        -22.0327912       0.0166181135        -36.2125964       0.0166181135        -36.2125964        0.910020055        -25.3916662
         1.25e+010       0.906657844         -22.730504       0.0164832699        -36.0841589       0.0164832699        -36.0841589        0.908781801        -26.1717225
   1.29166667e+010        0.90421865        -23.4256501       0.0163683246        -35.9776781       0.0163683246        -35.9776781        0.907568908        -26.9498707
   1.33333333e+010       0.901763828        -24.1203513        0.016271844        -35.8932212        0.016271844        -35.8932212         0.90636554        -27.7245055
        1.375e+010       0.899297643        -24.8124745       0.0161918854        -35.8341787       0.0161918854        -35.8341787        0.905178356        -28.4968466
   1.41666667e+010       0.896808138        -25.5038327       0.0161290616        -35.7981677       0.0161290616        -35.7981677        0.903995496        -29.2658808
   1.45833333e+010       0.894311779        -26.1940105       0.0160819132        -35.7906067       0.0160819132        -35.7906067        0.902827917        -30.0319584
          1.5e+010       0.891797925        -26.8834073       0.0160498016        -35.8147259       0.0160498016        -35.8147259        0.901664559        -30.7954945
   1.54166667e+010       0.889265081        -27.5721589       0.0160322209        -35.8741898       0.0160322209        -35.8741898         0.90050653        -31.5557321
   1.58333333e+010       0.886729444         -28.259794       0.0160287447        -35.9727883       0.0160287447        -35.9727883        0.899359636        -32.3124418
        1.625e+010        0.88417666        -28.9476051       0.0160381086        -36.1159403       0.0160381086        -36.1159403        0.898212732        -33.0660658
   1.66666667e+010       0.881604566        -29.6342835       0.0160590898        -36.3088863       0.0160590898        -36.3088863        0.897066092        -33.8158399
   1.70833333e+010       0.879021559        -30.3210909       0.0160903417        -36.5558264       0.0160903417        -36.5558264        0.895936376        -34.5625715
         1.75e+010       0.876426633        -31.0081545       0.0161304002        -36.8599519       0.0161304002        -36.8599519        0.894801449        -35.3056617
   1.79166667e+010        0.87381359         -31.695047       0.0161777486        -37.2237807       0.0161777486        -37.2237807        0.893672533        -36.0453796
   1.83333333e+010       0.871172804        -32.3822627       0.0162291157        -37.6529717       0.0162291157        -37.6529717        0.892549076        -36.7809255
        1.875e+010       0.868525576        -33.0698036       0.0162844285        -38.1443816       0.0162844285        -38.1443816        0.891426204        -37.5132967
   1.91666667e+010       0.865854342        -33.7585241       0.0163387471        -38.7014305       0.0163387471        -38.7014305        0.890311021        -38.2413005
   1.95833333e+010       0.863169473        -34.4472948       0.0163919959        -39.3208862       0.0163919959        -39.3208862        0.889192648        -38.9654282
            2e+010       0.860451088        -35.1379445        0.016441186         -40.003682        0.016441186         -40.003682        0.888082382        -39.6858769
