! Package Model of CGH21240 Transistor Input 
! Port 1 is Package Lead
! Port 2 is DUT
!AWR Design Environment (4229) Tue Oct 21 16:05:50 2008
!
!freq-unit  param-type  data-format  keyword  impedance-ohms
# GHz           S          MA           R         50
!-----------------------------------------------------------------------------
!Freq         MagS11       AngS11       MagS21       AngS21       MagS12       AngS12       MagS22       AngS22
 0            4.5983e-8    -0           1            -0           1            -0           4.6566e-8    -0          
 0.1          0.85622     -149.21       0.51661     -59.117       0.51661     -59.117       0.85622     -149.02      
 0.2          0.95728     -163.83       0.28915     -73.638       0.28915     -73.638       0.95728     -163.45      
 0.3          0.98024     -169.54       0.1978      -79.26        0.1978      -79.26        0.98024     -168.98      
 0.4          0.98868     -172.64       0.15007     -82.262       0.15007     -82.262       0.98868     -171.88      
 0.5          0.99265     -174.64       0.12099     -84.168       0.12099     -84.168       0.99265     -173.69      
 0.6          0.99483     -176.09       0.10152     -85.518       0.10152     -85.518       0.99483     -174.95      
 0.7          0.99616     -177.22       0.087606    -86.546       0.087606    -86.546       0.99616     -175.88      
 0.8          0.99702     -178.14       0.077208    -87.373       0.077208    -87.373       0.99702     -176.6       
 0.9          0.99761     -178.94       0.069165    -88.067       0.069165    -88.067       0.99761     -177.2       
 1            0.99803     -179.64       0.06278     -88.668       0.06278     -88.668       0.99803     -177.69      
 1.1          0.99834      179.72       0.057604    -89.202       0.057604    -89.202       0.99834     -178.12      
 1.2          0.99858      179.13       0.053339    -89.687       0.053339    -89.687       0.99858     -178.5       
 1.3          0.99876      178.57       0.049778    -90.135       0.049778    -90.135       0.99876     -178.84      
 1.4          0.99891      178.04       0.046773    -90.555       0.046773    -90.555       0.99891     -179.14      
 1.5          0.99902      177.52       0.044215    -90.953       0.044215    -90.953       0.99902     -179.43      
 1.6          0.99912      177.02       0.042023    -91.334       0.042023    -91.334       0.99912     -179.69      
 1.7          0.99919      176.53       0.040135    -91.704       0.040135    -91.704       0.99919     -179.93      
 1.8          0.99926      176.04       0.038503    -92.064       0.038503    -92.064       0.99926      179.83      
 1.9          0.99931      175.55       0.03709     -92.418       0.03709     -92.418       0.99931      179.61      
 2            0.99936      175.07       0.035865    -92.767       0.035865    -92.767       0.99936      179.4       
 2.1          0.99939      174.58       0.034804    -93.115       0.034804    -93.115       0.99939      179.19      
 2.2          0.99943      174.08       0.03389     -93.462       0.03389     -93.462       0.99943      179         
 2.3          0.99945      173.58       0.033105    -93.81        0.033105    -93.81        0.99945      178.8       
 2.4          0.99947      173.06       0.032438    -94.161       0.032438    -94.161       0.99947      178.62      
 2.5          0.99949      172.54       0.031878    -94.516       0.031878    -94.516       0.99949      178.43      
 2.6          0.99951      171.99       0.031418    -94.877       0.031418    -94.877       0.99951      178.25      
 2.7          0.99952      171.44       0.031052    -95.245       0.031052    -95.245       0.99952      178.08      
 2.8          0.99953      170.86       0.030773    -95.622       0.030773    -95.622       0.99953      177.9       
 2.9          0.99953      170.26       0.030579    -96.009       0.030579    -96.009       0.99953      177.73      
 3            0.99954      169.63       0.030468    -96.408       0.030468    -96.408       0.99954      177.55      
 3.1          0.99954      168.98       0.030438    -96.82        0.030438    -96.82        0.99954      177.38      
 3.2          0.99954      168.29       0.03049     -97.249       0.03049     -97.249       0.99954      177.21      
 3.3          0.99953      167.56       0.030623    -97.696       0.030623    -97.696       0.99953      177.04      
 3.4          0.99952      166.8        0.030842    -98.164       0.030842    -98.164       0.99952      176.88      
 3.5          0.99951      165.98       0.031148    -98.655       0.031148    -98.655       0.99951      176.71      
 3.6          0.9995       165.12       0.031546    -99.173       0.031546    -99.173       0.9995       176.54      
 3.7          0.99949      164.19       0.032043    -99.721       0.032043    -99.721       0.99949      176.37      
 3.8          0.99947      163.19       0.032646    -100.3        0.032646    -100.3        0.99947      176.2       
 3.9          0.99944      162.12       0.033366    -100.93       0.033366    -100.93       0.99944      176.02      
 4            0.99941      160.95       0.034213    -101.6        0.034213    -101.6        0.99941      175.85      
 4.1          0.99938      159.68       0.035205    -102.32       0.035205    -102.32       0.99938      175.68      
 4.2          0.99934      158.28       0.036357    -103.11       0.036357    -103.11       0.99934      175.5       
 4.3          0.99929      156.74       0.037695    -103.97       0.037695    -103.97       0.99929      175.33      
 4.4          0.99923      155.02       0.039246    -104.92       0.039246    -104.92       0.99923      175.15      
 4.5          0.99916      153.1        0.041045    -105.97       0.041045    -105.97       0.99916      174.96      
 4.6          0.99907      150.93       0.043138    -107.14       0.043138    -107.14       0.99907      174.78      
 4.7          0.99896      148.47       0.04558     -108.47       0.04558     -108.47       0.99896      174.59      
 4.8          0.99883      145.63       0.048443    -109.98       0.048443    -109.98       0.99883      174.4       
 4.9          0.99866      142.33       0.051819    -111.73       0.051819    -111.73       0.99866      174.21      
 5            0.99844      138.45       0.055826    -113.77       0.055826    -113.77       0.99844      174.01      
 5.1          0.99816      133.82       0.060619    -116.18       0.060619    -116.18       0.99816      173.81      
 5.2          0.99779      128.21       0.066395    -119.09       0.066395    -119.09       0.99779      173.61      
 5.3          0.9973       121.3        0.0734      -122.65       0.0734      -122.65       0.9973       173.4       
 5.4          0.99664      112.63       0.081924    -127.09       0.081924    -127.09       0.99664      173.19      
 5.5          0.99574      101.57       0.092244    -132.73       0.092244    -132.73       0.99574      172.97      
 5.6          0.99453      87.269       0.10445     -139.98       0.10445     -139.98       0.99453      172.77      
 5.7          0.99301      68.71        0.118       -149.35       0.118       -149.35       0.99301      172.59      
 5.8          0.99139      45.125       0.13091     -161.21       0.13091     -161.21       0.99139      172.45      
 5.9          0.99025      16.933       0.13931     -175.36       0.13931     -175.36       0.99025      172.36      
 6            0.99025     -13.319       0.13927      169.48       0.13927      169.48       0.99025      172.29      
 6.1          0.99142     -41.784       0.13068      155.2        0.13068      155.2        0.99142      172.19      
 6.2          0.99308     -65.755       0.1174       143.14       0.1174       143.14       0.99308      172.03      
 6.3          0.99464     -84.674       0.10341      133.57       0.10341      133.57       0.99464      171.82      
 6.4          0.99587     -99.263       0.090806     126.16       0.090806     126.16       0.99587      171.58      
 6.5          0.99678     -110.53       0.080162     120.4        0.080162     120.4        0.99678      171.33      
 6.6          0.99745     -119.34       0.071389     115.86       0.071389     115.86       0.99745      171.06      
 6.7          0.99794     -126.36       0.064195     112.22       0.064195     112.22       0.99794      170.79      
 6.8          0.9983      -132.05       0.058278     109.24       0.058278     109.24       0.9983       170.52      
 6.9          0.99857     -136.73       0.053379     106.75       0.053379     106.75       0.99857      170.24      
 7            0.99878     -140.65       0.049292     104.65       0.049292     104.65       0.99878      169.96      
 7.1          0.99895     -143.97       0.045858     102.85       0.045858     102.85       0.99895      169.66      
 7.2          0.99908     -146.82       0.042954     101.27       0.042954     101.27       0.99908      169.37      
 7.3          0.99918     -149.29       0.040484     99.886       0.040484     99.886       0.99918      169.06      
 7.4          0.99926     -151.46       0.038376     98.647       0.038376     98.647       0.99926      168.75      
 7.5          0.99933     -153.37       0.036572     97.53        0.036572     97.53        0.99933      168.43      
 7.6          0.99939     -155.08       0.035027     96.513       0.035027     96.513       0.99939      168.11      
 7.7          0.99943     -156.61       0.033705     95.579       0.033705     95.579       0.99943      167.77      
 7.8          0.99947     -157.99       0.032577     94.715       0.032577     94.715       0.99947      167.42      
 7.9          0.9995      -159.24       0.031623     93.908       0.031623     93.908       0.9995       167.06      
 8            0.99952     -160.39       0.030824     93.15        0.030824     93.15        0.99952      166.69      
 8.1          0.99954     -161.44       0.030166     92.432       0.030166     92.432       0.99954      166.3       
 8.2          0.99956     -162.41       0.02964      91.748       0.02964      91.748       0.99956      165.9       
 8.3          0.99957     -163.3        0.029237     91.093       0.029237     91.093       0.99957      165.49      
 8.4          0.99958     -164.14       0.028954     90.461       0.028954     90.461       0.99958      165.06      
 8.5          0.99959     -164.91       0.028787     89.847       0.028787     89.847       0.99959      164.61      
 8.6          0.99959     -165.64       0.028736     89.248       0.028736     89.248       0.99959      164.14      
 8.7          0.99959     -166.32       0.028804     88.66        0.028804     88.66        0.99959      163.64      
 8.8          0.99958     -166.97       0.028995     88.079       0.028995     88.079       0.99958      163.13      
 8.9          0.99957     -167.58       0.029318     87.503       0.029318     87.503       0.99957      162.58      
 9            0.99956     -168.16       0.029784     86.926       0.029784     86.926       0.99956      162.01      
 9.1          0.99954     -168.71       0.03041      86.346       0.03041      86.346       0.99954      161.4       
 9.2          0.99951     -169.24       0.031216     85.759       0.031216     85.759       0.99951      160.76      
 9.3          0.99948     -169.75       0.032232     85.161       0.032232     85.161       0.99948      160.07      
 9.4          0.99944     -170.23       0.033496     84.545       0.033496     84.545       0.99944      159.33      
 9.5          0.99939     -170.71       0.035061     83.906       0.035061     83.906       0.99939      158.52      
 9.6          0.99932     -171.17       0.037        83.237       0.037        83.237       0.99932      157.65      
 9.7          0.99922     -171.63       0.039414     82.526       0.039414     82.526       0.99922      156.68      
 9.8          0.9991      -172.08       0.042451     81.761       0.042451     81.761       0.9991       155.6       
 9.9          0.99893     -172.54       0.04633      80.919       0.04633      80.919       0.99893      154.37      
 10           0.99868     -173          0.051392     79.971       0.051392     79.971       0.99868      152.95      
 10.1         0.9983      -173.49       0.0582       78.868       0.0582       78.868       0.9983       151.23      
 10.2         0.9977      -174.04       0.067743     77.523       0.067743     77.523       0.9977       149.08      
 10.3         0.99664     -174.67       0.08194      75.769       0.08194      75.769       0.99664      146.2       
 10.4         0.99447     -175.48       0.10504      73.238       0.10504      73.238       0.99447      141.96      
 10.5         0.9889      -176.72       0.14858      68.915       0.14858      68.915       0.9889       134.55      
 10.6         0.96651     -179.23       0.25662      58.733       0.25662      58.733       0.96651      116.7       
 10.7         0.77088      179.7        0.63698      10.252       0.63698      10.252       0.77088      20.799      
 10.8         0.94386     -167.43       0.33036     -71.042       0.33036     -71.042       0.94386     -154.65      
 10.9         0.98644     -170.93       0.16414     -86.864       0.16414     -86.864       0.98644      177.2       
 11           0.9943      -172.42       0.10665     -92.509       0.10665     -92.509       0.9943       167.41      
 11.1         0.99692     -173.29       0.078362    -95.634       0.078362    -95.634       0.99692      162.02      
 11.2         0.9981      -173.9        0.061677    -97.796       0.061677    -97.796       0.9981       158.31      
 11.3         0.99871     -174.38       0.050732    -99.505       0.050732    -99.505       0.99871      155.37      
 11.4         0.99907     -174.78       0.043036    -100.98       0.043036    -100.98       0.99907      152.82      
 11.5         0.9993      -175.13       0.037354    -102.33       0.037354    -102.33       0.9993       150.47      
 11.6         0.99946     -175.44       0.033007    -103.62       0.033007    -103.62       0.99946      148.21      
 11.7         0.99956     -175.73       0.029591    -104.88       0.029591    -104.88       0.99956      145.97      
 11.8         0.99964     -176          0.026849    -106.16       0.026849    -106.16       0.99964      143.68      
 11.9         0.9997      -176.25       0.024613    -107.46       0.024613    -107.46       0.9997       141.33      
 12           0.99974     -176.5        0.022765    -108.82       0.022765    -108.82       0.99974      138.85      
 12.1         0.99977     -176.72       0.021223    -110.24       0.021223    -110.24       0.99977      136.24      
 12.2         0.9998      -176.95       0.019926    -111.75       0.019926    -111.75       0.9998       133.44      
 12.3         0.99982     -177.16       0.018831    -113.37       0.018831    -113.37       0.99982      130.43      
 12.4         0.99984     -177.36       0.017901    -115.1        0.017901    -115.1        0.99984      127.16      
 12.5         0.99985     -177.56       0.01711     -116.98       0.01711     -116.98       0.99985      123.6       
 12.6         0.99986     -177.75       0.016438    -119.02       0.016438    -119.02       0.99986      119.7       
 12.7         0.99987     -177.94       0.015865    -121.27       0.015865    -121.27       0.99987      115.41      
 12.8         0.99988     -178.12       0.015378    -123.73       0.015378    -123.73       0.99988      110.66      
 12.9         0.99989     -178.3        0.014963    -126.45       0.014963    -126.45       0.99989      105.39      
 13           0.99989     -178.48       0.014605    -129.47       0.014605    -129.47       0.99989      99.529      
 13.1         0.9999      -178.65       0.014293    -132.83       0.014293    -132.83       0.9999       92.991      
 13.2         0.9999      -178.81       0.014011    -136.56       0.014011    -136.56       0.9999       85.695      
 13.3         0.99991     -178.98       0.013742    -140.71       0.013742    -140.71       0.99991      77.567      
 13.4         0.99991     -179.14       0.013467    -145.3        0.013467    -145.3        0.99991      68.542      
 13.5         0.99991     -179.29       0.013163    -150.35       0.013163    -150.35       0.99991      58.588      
 13.6         0.99992     -179.45       0.012807    -155.87       0.012807    -155.87       0.99992      47.719      
 13.7         0.99992     -179.6        0.012377    -161.79       0.012377    -161.79       0.99992      36.017      
 13.8         0.99993     -179.75       0.011858    -168.05       0.011858    -168.05       0.99993      23.646      
 13.9         0.99994     -179.9        0.011243    -174.52       0.011243    -174.52       0.99994      10.847      
 14           0.99994      179.96       0.010542     178.94       0.010542     178.94       0.99994     -2.0788      
 14.1         0.99995      179.82       0.0097736    172.5        0.0097736    172.5        0.99995     -14.813      
 14.2         0.99996      179.68       0.0089688    166.31       0.0089688    166.31       0.99996     -27.064      
 14.3         0.99997      179.54       0.0081587    160.47       0.0081587    160.47       0.99997     -38.603      
 14.4         0.99997      179.4        0.0073716    155.06       0.0073716    155.06       0.99997     -49.282      
 14.5         0.99998      179.27       0.0066285    150.12       0.0066285    150.12       0.99998     -59.032      
 14.6         0.99998      179.13       0.0059423    145.64       0.0059423    145.64       0.99998     -67.849      
 14.7         0.99999      179          0.0053191    141.61       0.0053191    141.61       0.99999     -75.772      
 14.8         0.99999      178.87       0.0047597    138          0.0047597    138          0.99999     -82.868      
 14.9         0.99999      178.74       0.0042617    134.77       0.0042617    134.77       0.99999     -89.213      
 15           0.99999      178.62       0.0038203    131.86       0.0038203    131.86       0.99999     -94.889      
 15.1         0.99999      178.49       0.0034304    129.26       0.0034304    129.26       0.99999     -99.974      
 15.2         1            178.37       0.0030862    126.92       0.0030862    126.92       1           -104.54      
 15.3         1            178.25       0.0027824    124.8        0.0027824    124.8        1           -108.65      
 15.4         1            178.13       0.002514     122.89       0.002514     122.89       1           -112.35      
 15.5         1            178.01       0.0022765    121.15       0.0022765    121.15       1           -115.71      
 15.6         1            177.89       0.0020661    119.56       0.0020661    119.56       1           -118.76      
 15.7         1            177.77       0.0018791    118.11       0.0018791    118.11       1           -121.54      
 15.8         1            177.65       0.0017127    116.78       0.0017127    116.78       1           -124.09      
 15.9         1            177.54       0.0015643    115.56       0.0015643    115.56       1           -126.42      
 16           1            177.42       0.0014316    114.43       0.0014316    114.43       1           -128.56      
 16.1         1            177.31       0.0013126    113.39       0.0013126    113.39       1           -130.53      
 16.2         1            177.2        0.0012057    112.42       0.0012057    112.42       1           -132.36      
 16.3         1            177.09       0.0011094    111.52       0.0011094    111.52       1           -134.06      
 16.4         1            176.98       0.0010226    110.67       0.0010226    110.67       1           -135.63      
 16.5         1            176.87       0.00094403   109.89       0.00094403   109.89       1           -137.1       
 16.6         1            176.76       0.00087286   109.15       0.00087286   109.15       1           -138.46      
 16.7         1            176.66       0.00080825   108.46       0.00080825   108.46       1           -139.75      
 16.8         1            176.55       0.00074948   107.8        0.00074948   107.8        1           -140.95      
 16.9         1            176.44       0.00069592   107.19       0.00069592   107.19       1           -142.07      
 17           1            176.34       0.00064703   106.6        0.00064703   106.6        1           -143.13      
 17.1         1            176.24       0.00060232   106.05       0.00060232   106.05       1           -144.13      
 17.2         1            176.13       0.00056137   105.53       0.00056137   105.53       1           -145.07      
 17.3         1            176.03       0.00052381   105.03       0.00052381   105.03       1           -145.97      
 17.4         1            175.93       0.0004893    104.56       0.0004893    104.56       1           -146.81      
 17.5         1            175.83       0.00045754   104.11       0.00045754   104.11       1           -147.61      
 17.6         1            175.73       0.00042829   103.68       0.00042829   103.68       1           -148.37      
 17.7         1            175.63       0.0004013    103.27       0.0004013    103.27       1           -149.09      
 17.8         1            175.53       0.00037636   102.87       0.00037636   102.87       1           -149.78      
 17.9         1            175.43       0.0003533    102.5        0.0003533    102.5        1           -150.44      
 18           1            175.33       0.00033195   102.14       0.00033195   102.14       1           -151.06      
 18.1         1            175.24       0.00031215   101.79       0.00031215   101.79       1           -151.66      
 18.2         1            175.14       0.00029378   101.45       0.00029378   101.45       1           -152.23      
 18.3         1            175.05       0.0002767    101.13       0.0002767    101.13       1           -152.78      
 18.4         1            174.95       0.00026082   100.82       0.00026082   100.82       1           -153.3       
 18.5         1            174.86       0.00024604   100.53       0.00024604   100.53       1           -153.8       
 18.6         1            174.76       0.00023226   100.24       0.00023226   100.24       1           -154.28      
 18.7         1            174.67       0.00021941   99.96        0.00021941   99.96        1           -154.75      
 18.8         1            174.57       0.00020741   99.691       0.00020741   99.691       1           -155.19      
 18.9         1            174.48       0.0001962    99.431       0.0001962    99.431       1           -155.62      
 19           1            174.39       0.00018571   99.179       0.00018571   99.179       1           -156.03      
 19.1         1            174.3        0.00017589   98.935       0.00017589   98.935       1           -156.43      
 19.2         1            174.21       0.0001667    98.698       0.0001667    98.698       1           -156.81      
 19.3         1            174.12       0.00015807   98.469       0.00015807   98.469       1           -157.18      
 19.4         1            174.03       0.00014998   98.245       0.00014998   98.245       1           -157.54      
 19.5         1            173.94       0.00014239   98.028       0.00014239   98.028       1           -157.88      
 19.6         1            173.85       0.00013525   97.817       0.00013525   97.817       1           -158.21      
 19.7         1            173.76       0.00012854   97.612       0.00012854   97.612       1           -158.53      
 19.8         1            173.67       0.00012222   97.412       0.00012222   97.412       1           -158.85      
 19.9         1            173.58       0.00011627   97.218       0.00011627   97.218       1           -159.15      
 20           1            173.5        0.00011067   97.028       0.00011067   97.028       1           -159.44      
 20.1         1            173.41       0.00010539   96.842       0.00010539   96.842       1           -159.72      
 20.2         1            173.32       0.00010041   96.662       0.00010041   96.662       1           -160         
 20.3         1            173.23       9.5702e-5    96.485       9.5702e-5    96.485       1           -160.26      
 20.4         1            173.15       9.126e-5     96.313       9.126e-5     96.313       1           -160.52      
 20.5         1            173.06       8.7062e-5    96.145       8.7062e-5    96.145       1           -160.77      
 20.6         1            172.98       8.3092e-5    95.98        8.3092e-5    95.98        1           -161.02      
 20.7         1            172.89       7.9337e-5    95.819       7.9337e-5    95.819       1           -161.26      
 20.8         1            172.81       7.5783e-5    95.661       7.5783e-5    95.661       1           -161.49      
 20.9         1            172.72       7.2417e-5    95.507       7.2417e-5    95.507       1           -161.71      
 21           1            172.64       6.9227e-5    95.356       6.9227e-5    95.356       1           -161.93      
 21.1         1            172.56       6.6204e-5    95.207       6.6204e-5    95.207       1           -162.14      
 21.2         1            172.47       6.3336e-5    95.062       6.3336e-5    95.062       1           -162.35      
 21.3         1            172.39       6.0615e-5    94.92        6.0615e-5    94.92        1           -162.55      
 21.4         1            172.31       5.8032e-5    94.78        5.8032e-5    94.78        1           -162.75      
 21.5         1            172.23       5.5579e-5    94.643       5.5579e-5    94.643       1           -162.94      
 21.6         1            172.14       5.3248e-5    94.508       5.3248e-5    94.508       1           -163.13      
 21.7         1            172.06       5.1032e-5    94.376       5.1032e-5    94.376       1           -163.31      
 21.8         1            171.98       4.8924e-5    94.246       4.8924e-5    94.246       1           -163.49      
 21.9         1            171.9        4.6919e-5    94.119       4.6919e-5    94.119       1           -163.66      
 22           1            171.82       4.5011e-5    93.993       4.5011e-5    93.993       1           -163.83      
 22.1         1            171.74       4.3194e-5    93.87        4.3194e-5    93.87        1           -164         
 22.2         1            171.66       4.1463e-5    93.749       4.1463e-5    93.749       1           -164.16      
 22.3         1            171.58       3.9813e-5    93.629       3.9813e-5    93.629       1           -164.32      
 22.4         1            171.5        3.8241e-5    93.512       3.8241e-5    93.512       1           -164.47      
 22.5         1            171.42       3.6742e-5    93.396       3.6742e-5    93.396       1           -164.62      
 22.6         1            171.34       3.5311e-5    93.283       3.5311e-5    93.283       1           -164.77      
 22.7         1            171.26       3.3946e-5    93.17        3.3946e-5    93.17        1           -164.92      
 22.8         1            171.18       3.2643e-5    93.06        3.2643e-5    93.06        1           -165.06      
 22.9         1            171.1        3.1398e-5    92.951       3.1398e-5    92.951       1           -165.2       
 23           1            171.02       3.0209e-5    92.844       3.0209e-5    92.844       1           -165.33      
 23.1         1            170.94       2.9073e-5    92.738       2.9073e-5    92.738       1           -165.47      
 23.2         1            170.87       2.7987e-5    92.634       2.7987e-5    92.634       1           -165.6       
 23.3         1            170.79       2.6948e-5    92.531       2.6948e-5    92.531       1           -165.73      
 23.4         1            170.71       2.5955e-5    92.429       2.5955e-5    92.429       1           -165.85      
 23.5         1            170.63       2.5004e-5    92.329       2.5004e-5    92.329       1           -165.98      
 23.6         1            170.56       2.4094e-5    92.23        2.4094e-5    92.23        1           -166.1       
 23.7         1            170.48       2.3223e-5    92.133       2.3223e-5    92.133       1           -166.21      
 23.8         1            170.4        2.2389e-5    92.036       2.2389e-5    92.036       1           -166.33      
 23.9         1            170.33       2.1589e-5    91.941       2.1589e-5    91.941       1           -166.44      
 24           1            170.25       2.0823e-5    91.847       2.0823e-5    91.847       1           -166.56      
 24.1         1            170.17       2.0089e-5    91.754       2.0089e-5    91.754       1           -166.67      
 24.2         1            170.1        1.9385e-5    91.662       1.9385e-5    91.662       1           -166.77      
 24.3         1            170.02       1.871e-5     91.572       1.871e-5     91.572       1           -166.88      
 24.4         1            169.95       1.8062e-5    91.482       1.8062e-5    91.482       1           -166.98      
 24.5         1            169.87       1.7441e-5    91.393       1.7441e-5    91.393       1           -167.09      
 24.6         1            169.8        1.6844e-5    91.305       1.6844e-5    91.305       1           -167.19      
 24.7         1            169.72       1.6271e-5    91.219       1.6271e-5    91.219       1           -167.28      
 24.8         1            169.65       1.5721e-5    91.133       1.5721e-5    91.133       1           -167.38      
 24.9         1            169.57       1.5192e-5    91.048       1.5192e-5    91.048       1           -167.48      
 25           1            169.5        1.4685e-5    90.964       1.4685e-5    90.964       1           -167.57      
 25.1         1            169.42       1.4197e-5    90.881       1.4197e-5    90.881       1           -167.66      
 25.2         1            169.35       1.3728e-5    90.798       1.3728e-5    90.798       1           -167.75      
 25.3         1            169.28       1.3277e-5    90.717       1.3277e-5    90.717       1           -167.84      
 25.4         1            169.2        1.2843e-5    90.636       1.2843e-5    90.636       1           -167.93      
 25.5         1            169.13       1.2426e-5    90.556       1.2426e-5    90.556       1           -168.02      
 25.6         1            169.05       1.2024e-5    90.477       1.2024e-5    90.477       1           -168.1       
 25.7         1            168.98       1.1638e-5    90.399       1.1638e-5    90.399       1           -168.18      
 25.8         1            168.91       1.1266e-5    90.321       1.1266e-5    90.321       1           -168.27      
 25.9         1            168.84       1.0908e-5    90.244       1.0908e-5    90.244       1           -168.35      
 26           1            168.76       1.0563e-5    90.168       1.0563e-5    90.168       1           -168.43      
 26.1         1            168.69       1.023e-5     90.093       1.023e-5     90.093       1           -168.5       
 26.2         1            168.62       9.9104e-6    90.018       9.9104e-6    90.018       1           -168.58      
 26.3         1            168.55       9.6019e-6    89.943       9.6019e-6    89.943       1           -168.66      
 26.4         1            168.47       9.3046e-6    89.87        9.3046e-6    89.87        1           -168.73      
 26.5         1            168.4        9.0181e-6    89.797       9.0181e-6    89.797       1           -168.81      
 26.6         1            168.33       8.7417e-6    89.725       8.7417e-6    89.725       1           -168.88      
 26.7         1            168.26       8.4752e-6    89.653       8.4752e-6    89.653       1           -168.95      
 26.8         1            168.19       8.2181e-6    89.582       8.2181e-6    89.582       1           -169.02      
 26.9         1            168.11       7.9701e-6    89.511       7.9701e-6    89.511       1           -169.09      
 27           1            168.04       7.7308e-6    89.441       7.7308e-6    89.441       1           -169.16      
 27.1         1            167.97       7.4998e-6    89.371       7.4998e-6    89.371       1           -169.23      
 27.2         1            167.9        7.2768e-6    89.302       7.2768e-6    89.302       1           -169.3       
 27.3         1            167.83       7.0615e-6    89.234       7.0615e-6    89.234       1           -169.36      
 27.4         1            167.76       6.8536e-6    89.166       6.8536e-6    89.166       1           -169.43      
 27.5         1            167.69       6.6528e-6    89.099       6.6528e-6    89.099       1           -169.49      
 27.6         1            167.62       6.4588e-6    89.032       6.4588e-6    89.032       1           -169.55      
 27.7         1            167.55       6.2714e-6    88.965       6.2714e-6    88.965       1           -169.62      
 27.8         1            167.48       6.0903e-6    88.899       6.0903e-6    88.899       1           -169.68      
 27.9         1            167.41       5.9152e-6    88.834       5.9152e-6    88.834       1           -169.74      
 28           1            167.34       5.746e-6     88.769       5.746e-6     88.769       1           -169.8       
 28.1         1            167.27       5.5824e-6    88.704       5.5824e-6    88.704       1           -169.86      
 28.2         1            167.2        5.4241e-6    88.64        5.4241e-6    88.64        1           -169.92      
 28.3         1            167.13       5.2711e-6    88.576       5.2711e-6    88.576       1           -169.97      
 28.4         1            167.06       5.1231e-6    88.513       5.1231e-6    88.513       1           -170.03      
 28.5         1            166.99       4.9799e-6    88.45        4.9799e-6    88.45        1           -170.09      
 28.6         1            166.92       4.8413e-6    88.388       4.8413e-6    88.388       1           -170.14      
 28.7         1            166.85       4.7072e-6    88.326       4.7072e-6    88.326       1           -170.2       
 28.8         1            166.78       4.5774e-6    88.264       4.5774e-6    88.264       1           -170.25      
 28.9         1            166.71       4.4517e-6    88.203       4.4517e-6    88.203       1           -170.3       
 29           1            166.64       4.33e-6      88.142       4.33e-6      88.142       1           -170.36      
 29.1         1            166.57       4.2122e-6    88.081       4.2122e-6    88.081       1           -170.41      
 29.2         1            166.5        4.0981e-6    88.021       4.0981e-6    88.021       1           -170.46      
 29.3         1            166.43       3.9875e-6    87.961       3.9875e-6    87.961       1           -170.51      
 29.4         1            166.37       3.8804e-6    87.902       3.8804e-6    87.902       1           -170.56      
 29.5         1            166.3        3.7766e-6    87.843       3.7766e-6    87.843       1           -170.61      
 29.6         1            166.23       3.6761e-6    87.784       3.6761e-6    87.784       1           -170.66      
 29.7         1            166.16       3.5786e-6    87.725       3.5786e-6    87.725       1           -170.71      
 29.8         1            166.09       3.4841e-6    87.667       3.4841e-6    87.667       1           -170.76      
 29.9         1            166.02       3.3925e-6    87.609       3.3925e-6    87.609       1           -170.8       
 30           1            165.96       3.3037e-6    87.552       3.3037e-6    87.552       1           -170.85      
 30.1         1            165.89       3.2176e-6    87.495       3.2176e-6    87.495       1           -170.9       
 30.2         1            165.82       3.1341e-6    87.438       3.1341e-6    87.438       1           -170.94      
 30.3         1            165.75       3.053e-6     87.381       3.053e-6     87.381       1           -170.99      
 30.4         1            165.68       2.9744e-6    87.325       2.9744e-6    87.325       1           -171.03      
 30.5         1            165.62       2.8982e-6    87.269       2.8982e-6    87.269       1           -171.08      
 30.6         1            165.55       2.8242e-6    87.213       2.8242e-6    87.213       1           -171.12      
 30.7         1            165.48       2.7523e-6    87.158       2.7523e-6    87.158       1           -171.17      
 30.8         1            165.41       2.6826e-6    87.103       2.6826e-6    87.103       1           -171.21      
 30.9         1            165.35       2.6149e-6    87.048       2.6149e-6    87.048       1           -171.25      
 31           1            165.28       2.5492e-6    86.993       2.5492e-6    86.993       1           -171.29      
