! Created Thu Oct 05 12:26:10 2017
! List of port names and net name(s): example Port n = <port_name> <net_name1> <net_name2> ...
! Port 1 = P1 P4 
! Port 2 = P2 P4 
! Port 3 = P3 P4 
! Port 4 = P4 P4 
# hz S ma R 50
! 4 Port Network Data from data block
! freq  magS11  angS11  magS12  angS12  magS13  angS13  magS14  angS14  
!       magS21  angS21  magS22  angS22  magS23  angS23  magS24  angS24  
!       magS31  angS31  magS32  angS32  magS33  angS33  magS34  angS34  
!       magS41  angS41  magS42  angS42  magS43  angS43  magS44  angS44  
!     
                 0           0.49977                180             0.4999   -3.75488504e-010            0.49989    -9.6361761e-010            0.49997   -2.20269652e-010
                           0.4999   -3.75488504e-010            0.49977                180            0.49989   -1.49758278e-010            0.49998    -2.0914942e-010
                          0.49989    -9.6361761e-010            0.49989   -1.49758278e-010            0.49977                180            0.49997   -2.21197899e-010
                          0.49997   -2.20269652e-010            0.49998    -2.0914942e-010            0.49997   -2.21197899e-010            0.49993                180

        6.94444445           0.49977                180             0.4999   -2.60759408e-009            0.49989   -6.69178578e-009            0.49997   -1.52965991e-009
                           0.4999   -2.60759408e-009            0.49977                180            0.49989   -1.03998677e-009            0.49998   -1.45239151e-009
                          0.49989   -6.69178578e-009            0.49989   -1.03998677e-009            0.49977                180            0.49997   -1.53607742e-009
                          0.49997   -1.52965991e-009            0.49998   -1.45239151e-009            0.49997   -1.53607742e-009            0.49993                180

        69.4444445           0.49977                180             0.4999   -2.60759408e-008            0.49989   -6.69178578e-008            0.49997   -1.52965991e-008
                           0.4999   -2.60759408e-008            0.49977                180            0.49989   -1.03998677e-008            0.49998   -1.45239151e-008
                          0.49989   -6.69178578e-008            0.49989   -1.03998677e-008            0.49977                180            0.49997   -1.53607742e-008
                          0.49997   -1.52965991e-008            0.49998   -1.45239151e-008            0.49997   -1.53607742e-008            0.49993                180

        694.444445           0.49977         179.999999             0.4999   -2.60759408e-007            0.49989   -6.69178578e-007            0.49997   -1.52965991e-007
                           0.4999   -2.60759408e-007            0.49977                180            0.49989   -1.03998677e-007            0.49998   -1.45239151e-007
                          0.49989   -6.69178578e-007            0.49989   -1.03998677e-007            0.49977         179.999999            0.49997   -1.53607742e-007
                          0.49997   -1.52965991e-007            0.49998   -1.45239151e-007            0.49997   -1.53607742e-007            0.49993                180

        6944.44445           0.49977         179.999989             0.4999   -2.60759408e-006            0.49989   -6.69178578e-006            0.49997   -1.52965991e-006
                           0.4999   -2.60759408e-006            0.49977         179.999997            0.49989   -1.03998677e-006            0.49998   -1.45239151e-006
                          0.49989   -6.69178578e-006            0.49989   -1.03998677e-006            0.49977         179.999989            0.49997   -1.53607742e-006
                          0.49997   -1.52965991e-006            0.49998   -1.45239151e-006            0.49997   -1.53607742e-006            0.49993         179.999999

        69444.4444           0.49977          179.99989             0.4999   -2.60759408e-005            0.49989   -6.69178578e-005            0.49997   -1.52965991e-005
                           0.4999   -2.60759408e-005            0.49977         179.999973            0.49989   -1.03998677e-005            0.49998   -1.45239151e-005
                          0.49989   -6.69178578e-005            0.49989   -1.03998677e-005            0.49977          179.99989            0.49997   -1.53607742e-005
                          0.49997   -1.52965991e-005            0.49998   -1.45239151e-005            0.49997   -1.53607742e-005            0.49993         179.999992

        694444.444           0.49977           179.9989             0.4999    -0.000260759408            0.49989    -0.000669178577            0.49997    -0.000152965991
                           0.4999    -0.000260759408            0.49977         179.999726            0.49989    -0.000104003261            0.49998    -0.000145239151
                          0.49989    -0.000669178577            0.49989    -0.000104003261            0.49977         179.998899            0.49997    -0.000153607742
                          0.49997    -0.000152965991            0.49998    -0.000145239151            0.49997    -0.000153607742            0.49993         179.999921

        6944444.45       0.499770009         179.989006        0.499900001     -0.00260759408        0.499890003     -0.00669178574            0.49997     -0.00152965991
                      0.499900001     -0.00260759408        0.499770001         179.997256            0.49989     -0.00104505283            0.49998     -0.00145239151
                      0.499890003     -0.00669178574            0.49989     -0.00104505283        0.499760009         179.988994            0.49997     -0.00153607742
                          0.49997     -0.00152965991            0.49998     -0.00145239151            0.49997     -0.00153607742            0.49993         179.999209

        69444444.5        0.49963079         179.898119        0.499890052      -0.0260753144        0.499890341      -0.0669166812        0.499970018      -0.0152965987
                      0.499890052      -0.0260753144        0.499770057         179.972555        0.499840015      -0.0141909758        0.499980016      -0.0145239148
                      0.499890341      -0.0669166812        0.499840015      -0.0141909758        0.499630801         179.897373        0.499970018      -0.0153607739
                      0.499970018      -0.0152965987        0.499980016      -0.0145239148        0.499970018      -0.0153607739        0.499930005         179.992089

         694444445       0.499088427         179.288997        0.499875136       -0.259718762        0.499853987       -0.668152995        0.499971783       -0.153034386
                      0.499875136       -0.259718762        0.499745752         179.725092        0.499684681       -0.247995793        0.499971603       -0.145092768
                      0.499853987       -0.668152995        0.499684681       -0.247995793        0.499048662         179.286805        0.499961797       -0.153610447
                      0.499971783       -0.153034386        0.499971603       -0.145092768        0.499961797       -0.153610447        0.499920486          179.92012

   1.38888889e+009       0.499048755         178.601016        0.499820188       -0.514960325        0.499764897        -1.33126829        0.499957148       -0.306388252
                      0.499820188       -0.514960325        0.499663202         179.447838        0.499689188       -0.502114987         0.49997638       -0.289450265
                      0.499764897        -1.33126829        0.499689188       -0.502114987        0.499009182         178.598953        0.499947186       -0.307208054
                      0.499957148       -0.306388252         0.49997638       -0.289450265        0.499947186       -0.307208054        0.499912029          179.83677

   2.08333333e+009       0.499002487         177.908307        0.499784656       -0.765927425        0.499670721        -1.98792321        0.499936124       -0.460171762
                      0.499784656       -0.765927425        0.499562719         179.167606        0.499703346       -0.754676828        0.499964268       -0.432870289
                      0.499670721        -1.98792321        0.499703346       -0.754676828        0.498963208         177.905959        0.499916167       -0.460797589
                      0.499936124       -0.460171762        0.499964268       -0.432870289        0.499916167       -0.460797589        0.499934764          179.74987

   2.77777778e+009        0.49895954         177.214493        0.499778358        -1.01460368         0.49958014         -2.6397869        0.499898726        -0.61423234
                      0.499778358        -1.01460368        0.499444536         178.885194        0.499727112        -1.00655456         0.49993522       -0.575517213
                       0.49958014         -2.6397869        0.499727112        -1.00655456         0.49891062         177.211805        0.499878734       -0.614337143
                      0.499898726        -0.61423234         0.49993522       -0.575517213        0.499878734       -0.614337143        0.500008748         179.661076

   3.47222222e+009       0.498889645         176.520536         0.49978131        -1.26242191        0.499512645        -3.28874513        0.499844942       -0.768334136
                       0.49978131        -1.26242191        0.499308678         178.601745        0.499750437        -1.25791285        0.499899213        -0.71765555
                      0.499512645        -3.28874513        0.499750437        -1.25791285        0.498851237         176.517391        0.499824878       -0.767803234
                      0.499844942       -0.768334136        0.499899213        -0.71765555        0.499824878       -0.767803234        0.500113972         179.571716

   4.16666667e+009       0.498812653         175.826621        0.499813544        -1.50990859        0.499478216        -3.93620076        0.499784746        -0.92226865
                      0.499813544        -1.50990859        0.499175082         178.317988        0.499793287        -1.50882301        0.499846233       -0.859446743
                      0.499478216        -3.93620076        0.499793287        -1.50882301        0.498764824         175.822995        0.499754584       -0.921143291
                      0.499784746        -0.92226865        0.499846233       -0.859446743        0.499754584       -0.921143291        0.500270399         179.482582

   4.86111111e+009       0.498728113         175.133186        0.499855102        -1.75735873        0.499446885        -4.58295516        0.499698102        -1.07592543
                      0.499855102        -1.75735873        0.499033508         178.034811        0.499835571        -1.75914767        0.499786269        -1.00097768
                      0.499446885        -4.58295516        0.499835571        -1.75914767        0.498681009         175.129036        0.499677827        -1.07427175
                      0.499698102        -1.07592543        0.499786269        -1.00097768        0.499677827        -1.07427175         0.50045799         179.394022

   5.55555556e+009       0.498625806         174.440103        0.499915975        -2.00472302        0.499438816        -5.22944109        0.499614977        -1.22923312
                      0.499915975        -2.00472302        0.498883872         177.752194        0.499887289        -2.00908156        0.499719303        -1.14225507
                      0.499438816        -5.22944109        0.499887289        -2.00908156        0.498569578         174.435318        0.499594575        -1.22710382
                      0.499614977        -1.22923312        0.499719303        -1.14225507        0.499594575        -1.22710382        0.500676703         179.306234

   5.83333333e+009       0.498575047         174.162937        0.499936952        -2.10372215        0.499439208        -5.48788418        0.499566688         -1.2903823
                      0.499936952        -2.10372215        0.498813281         177.639448        0.499908589        -2.10888792        0.499689345        -1.19865768
                      0.499439208        -5.48788418        0.499908589        -2.10888792        0.498529071         174.158122        0.499556263        -1.28822951
                      0.499566688         -1.2903823        0.499689345        -1.19865768        0.499556263        -1.28822951        0.500770493         179.271361

   6.11111111e+009       0.498535744         173.885949        0.499969452        -2.20278315        0.499439811        -5.74643648        0.499528966        -1.35151618
                      0.499969452        -2.20278315        0.498754569         177.526834        0.499941399        -2.20864131        0.499649891        -1.25518384
                      0.499439811        -5.74643648        0.499941399        -2.20864131        0.498480134         173.880872          0.4995085        -1.34927684
                      0.499528966        -1.35151618        0.499649891        -1.25518384          0.4995085        -1.34927684        0.500874454         179.236632

   6.38888889e+009       0.498487884         173.609011        0.499993415        -2.30176249        0.499440535         -6.0049888        0.499491787        -1.41254455
                      0.499993415        -2.30176249        0.498687705         177.414372        0.499965691        -2.30831296        0.499620876        -1.31146332
                      0.499440535         -6.0049888        0.499965691        -2.30831296          0.4984326         173.603788        0.499471276        -1.41019287
                      0.499491787        -1.41254455        0.499620876        -1.31146332        0.499471276        -1.41019287        0.500978583         179.202053

   6.66666667e+009       0.498431459         173.332102         0.50002886        -2.40068405        0.499451211        -6.26330705        0.499445153        -1.47349676
                       0.50002886        -2.40068405         0.49861268         177.302056        0.499991496        -2.40797462        0.499582369        -1.36789131
                      0.499451211        -6.26330705        0.499991496        -2.40797462         0.49838656         173.326753        0.499424595        -1.47103268
                      0.499445153        -1.47349676        0.499582369        -1.36789131        0.499424595        -1.47103268        0.501092875         179.167644

          7.5e+009       0.498280143          172.50239        0.500124207        -2.69758275        0.499464132        -7.03867728        0.499298561        -1.65610979
                      0.500124207        -2.69758275        0.498398577         176.966059        0.500087834        -2.70649622        0.499459626        -1.53668413
                      0.499464132        -7.03867728        0.500087834        -2.70649622         0.49822653         172.496359        0.499287872        -1.65338999
                      0.499298561        -1.65610979        0.499459626        -1.53668413        0.499287872        -1.65338999        0.501456719         179.065345

   8.33333333e+009       0.498100685          171.67337        0.500242964        -2.99430047        0.499497664        -7.81370702        0.499146824        -1.83806196
                      0.500242964        -2.99430047        0.498170622         176.631648        0.500197585        -3.00455157        0.499331135        -1.70524854
                      0.499497664        -7.81370702        0.500197585        -3.00455157        0.498048272         171.666906        0.499125969         -1.8350378
                      0.499146824        -1.83806196        0.499331135        -1.70524854        0.499125969         -1.8350378        0.501851954         178.964525

   9.16666667e+009       0.497921911         170.845616        0.500365204        -3.29104945        0.499531636        -8.58855821        0.498979925        -2.01951537
                      0.500365204        -3.29104945        0.497938533         176.298861        0.500320692        -3.30212511         0.49919681        -1.87336222
                      0.499531636        -8.58855821        0.500320692        -3.30212511         0.49786092          170.83854        0.498958881        -2.01615352
                      0.498979925        -2.01951537         0.49919681        -1.87336222        0.498958881        -2.01615352        0.502288508         178.865243

            1e+010        0.49772322         170.018787        0.500500859        -3.58764552        0.499575572        -9.36295767         0.49879778        -2.20037314
                      0.500500859        -3.58764552         0.49768223         175.967288        0.500447182        -3.59938758        0.499046655        -2.04118779
                      0.499575572        -9.36295767        0.500447182        -3.59938758        0.497663644         170.011268         0.49878656         -2.1967441
                       0.49879778        -2.20037314        0.499046655        -2.04118779         0.49878656         -2.1967441        0.502756315         178.767506

   1.08333333e+010       0.497523461          169.19327        0.500649851        -3.88395873        0.499629176        -10.1368881        0.498610451        -2.38094974
                      0.500649851        -3.88395873        0.497421301         175.637277        0.500597045        -3.89629986        0.498890637        -2.20869818
                      0.499629176        -10.1368881        0.500597045        -3.89629986        0.497455573         169.185094        0.498588933          -2.376797
                      0.498610451        -2.38094974        0.498890637        -2.20869818        0.498588933          -2.376797          0.5032653         178.671388

   1.16666667e+010       0.497311248          168.36922        0.500802398        -4.18039932        0.499681941        -10.9103253        0.498417821        -2.56102262
                      0.500802398        -4.18039932         0.49715573         175.308464        0.500750297        -4.19299601        0.498718738        -2.37594805
                      0.499681941        -10.9103253        0.500750297        -4.19299601        0.497244993          168.36059         0.49839601        -2.55641669
                      0.498417821        -2.56102262        0.498718738        -2.37594805         0.49839601        -2.55641669        0.503795395         178.576886

         1.25e+010       0.497086805         167.545955        0.500968342        -4.47665144        0.499741922        -11.6822844        0.498209996        -2.74099834
                      0.500968342        -4.47665144        0.496875177         174.980961        0.500917046        -4.48961669        0.498540924        -2.54290358
                      0.499741922        -11.6822844        0.500917046        -4.48961669        0.497021633         167.537212        0.498187821          -2.735824
                      0.498209996        -2.74099834        0.498540924        -2.54290358        0.498187821          -2.735824        0.504346559         178.483891

   1.33333333e+010       0.496870587         166.723099        0.501137705        -4.77279459        0.499801686        -12.4545759        0.497996901        -2.92072152
                      0.501137705        -4.77279459        0.496579796          174.65427        0.501087329        -4.78624136        0.498357168        -2.70957182
                      0.499801686        -12.4545759        0.501087329        -4.78624136        0.496796778          166.71398         0.49797428        -2.91486355
                      0.497996901        -2.92072152        0.498357168        -2.70957182         0.49797428        -2.91486355        0.504928728         178.392444

   1.41666667e+010       0.496647759          165.90248        0.501320624        -5.06895742        0.499869772         -13.226409        0.497768576        -3.10037651
                      0.501320624        -5.06895742        0.496289145         174.328809        0.501271034        -5.08265657        0.498167494        -2.87607471
                      0.499869772         -13.226409        0.501271034        -5.08265657        0.496577528         165.892117        0.497755511         -3.0938872
                      0.497768576        -3.10037651        0.498167494        -2.87607471        0.497755511         -3.0938872        0.505541841         178.302554

          1.5e+010       0.496422538         165.081668        0.501507065        -5.36511687        0.499943653        -13.9967736        0.497544979        -3.27984972
                      0.501507065        -5.36511687        0.495983332         174.004109        0.501458469        -5.37929504        0.497971885        -3.04241941
                      0.499943653        -13.9967736        0.501458469        -5.37929504        0.496353601         165.071185        0.497521468        -3.27285312
                      0.497544979        -3.27984972        0.497971885        -3.04241941        0.497521468        -3.27285312        0.506165848         178.214162

   1.58333333e+010       0.496201802         164.261906         0.50169714        -5.66138825        0.500025422        -14.7668919        0.497306183        -3.45939159
                       0.50169714        -5.66138825        0.495672377         173.680028        0.501659534        -5.67593121        0.497770268        -3.20849818
                      0.500025422        -14.7668919        0.501659534        -5.67593121        0.496124546         164.250992        0.497292163        -3.45175573
                      0.497306183        -3.45939159        0.497770268        -3.20849818        0.497292163        -3.45175573        0.506800724         178.127155

   1.66666667e+010       0.495985052         163.443048        0.501900828        -5.95765439        0.500100062        -15.5349659        0.497062106        -3.63883225
                      0.501900828        -5.95765439        0.495355931         173.356776        0.501854455        -5.97289998        0.497572719        -3.37448025
                      0.500100062        -15.5349659        0.501854455        -5.97289998        0.495909155         163.432004        0.497047625        -3.63073758
                      0.497062106        -3.63883225        0.497572719        -3.37448025        0.497047625        -3.63073758        0.507466475         178.041385

         1.75e+010       0.495784378          162.62419         0.50210831        -6.25413685         0.50018214        -16.3030463         0.49681293        -3.81852426
                       0.50210831        -6.25413685        0.495034207          173.03399        0.502063175         -6.2699705        0.497359203        -3.54039011
                       0.50018214        -16.3030463        0.502063175         -6.2699705        0.495687781         162.613429        0.496797897        -3.80985543
                       0.49681293        -3.81852426        0.497359203        -3.54039011        0.496797897        -3.80985543        0.508133004         177.956966

   1.83333333e+010        0.49557755         161.805619        0.502319519        -6.55072322        0.500259224        -17.0704782        0.496558531        -3.99824508
                      0.502319519        -6.55072322        0.494697061         172.711617        0.502275904         -6.5673699        0.497139751        -3.70628557
                      0.500259224        -17.0704782        0.502275904         -6.5673699        0.495482293         161.794695        0.496542983        -3.98911685
                      0.496558531        -3.99824508        0.497139751        -3.70628557        0.496542983        -3.98911685        0.508820359          177.87364

   1.91666667e+010        0.49538328         160.987892        0.502534725        -6.84764107        0.500347132        -17.8356311        0.496289003        -4.17820146
                      0.502534725        -6.84764107        0.494354581         172.389541        0.502482655        -6.86512169        0.496924337        -3.87209609
                      0.500347132        -17.8356311        0.502482655        -6.86512169        0.495289381         160.976807        0.496272916        -4.16861337
                      0.496289003        -4.17820146        0.496924337        -3.87209609        0.496272916        -4.16861337        0.509518472         177.791481

            2e+010       0.495195142         160.169422        0.502763911        -7.14474908        0.500429364        -18.6004102        0.496014252        -4.35820906
                      0.502763911        -7.14474908        0.494006555         172.067857        0.502693666        -7.16332809        0.496702971        -4.03790014
                      0.500429364        -18.6004102        0.502693666        -7.16332809        0.495102622          160.15818        0.496007725        -4.34830359
                      0.496014252        -4.35820906        0.496702971        -4.03790014        0.496007725        -4.34830359        0.510217429         177.710108

