! AWR Design Environment (17415) Mon Jun  2 11:45:04 2025
! Document = 'CGHV1A250F_v0_leakage_adjustment_passives'
! nPorts: 4, nXvals: 3305

# GHz S DB R 50
!Freq DBS11 AngS11 DBS12 AngS12 DBS13 AngS13 DBS14 AngS14 
!	DBS21 AngS21 DBS22 AngS22 DBS23 AngS23 DBS24 AngS24 
!	DBS31 AngS31 DBS32 AngS32 DBS33 AngS33 DBS34 AngS34 
!	DBS41 AngS41 DBS42 AngS42 DBS43 AngS43 DBS44 AngS44 
0 -40.997175 -180 -800 0 -0.0063185205 0 -800 0 
	-800 0 -64.813186 0 -800 0 -0.0080806872 0 
	-0.0063185205 -0 -800 0 -40.136777 0 -800 0 
	-800 0 -0.0080806872 -0 -800 0 -64.851623 0 
1e-06 -40.997079 -179.93569 -800 0 -0.0063176942 -0.00062174413 -800 0 
	-800 0 -65.050618 7.8065689 -800 0 -0.16187914 7.3057767 
	-0.0063176942 -0.00062174413 -800 0 -40.136665 -0.063089942 -800 0 
	-800 0 -0.16187914 7.3057767 -800 0 -64.85135 -0.70085354 
1e-05 -40.995717 -179.35695 -800 0 -0.0063103242 -0.0062173482 -800 0 
	-800 0 -71.80883 65.847652 -800 0 -1.1048571 65.412402 
	-0.0063103242 -0.0062173482 -800 0 -40.13519 -0.63081376 -800 0 
	-800 0 -1.1048571 65.412402 -800 0 -64.790912 -6.9769942 
0.0001 -40.932852 -173.6032 -800 0 -0.0062434002 -0.062164386 -800 0 
	-800 0 -62.936349 -80.034163 -800 0 -0.36971089 162.53477 
	-0.0062434002 -0.062164386 -800 0 -40.07487 -6.2777823 -800 0 
	-800 0 -0.36971089 162.53477 -800 0 -60.896758 -50.879913 
0.001 -37.373098 -132.36326 -800 0 -0.0062134033 -0.62090346 -800 0 
	-800 0 -43.209664 -89.275462 -800 0 -0.04401626 177.87667 
	-0.0062134033 -0.62090346 -800 0 -36.679994 -47.790569 -800 0 
	-800 0 -0.04401626 177.87667 -800 0 -43.079931 -85.926396 
0.01 -19.99935 -101.68408 -800 0 -0.056630187 -6.1646337 -800 0 
	-800 0 -23.177637 -94.320196 -800 0 -0.033496122 175.68351 
	-0.056630187 -6.1646337 -800 0 -19.274372 -90.900721 -800 0 
	-800 0 -0.033496122 175.68351 -800 0 -23.123779 -93.74054 
0.02 -14.197585 -104.48723 -800 0 -0.20390618 -12.158316 -800 0 
	-800 0 -17.222233 -98.726224 -800 0 -0.096691958 171.61586 
	-0.20390618 -12.158316 -800 0 -13.47157 -100.58372 -800 0 
	-800 0 -0.096691958 171.61586 -800 0 -17.158315 -98.011561 
0.03 -10.815483 -108.65614 -800 0 -0.42645438 -17.640486 -800 0 
	-800 0 -13.811819 -102.99922 -800 0 -0.19953725 167.57657 
	-0.42645438 -17.640486 -800 0 -10.341424 -109.95487 -800 0 
	-800 0 -0.19953725 167.57657 -800 0 -13.770819 -102.18273 
0.04 -8.5364939 -113.68679 -800 0 -0.70551448 -23.256362 -800 0 
	-800 0 -11.463356 -106.98231 -800 0 -0.33828063 163.61235 
	-0.70551448 -23.256362 -800 0 -8.3053232 -113.1586 -800 0 
	-800 0 -0.33828063 163.61235 -800 0 -11.435239 -105.75751 
0.05 -6.8384906 -119.01152 -800 0 -1.0481404 -28.339788 -800 0 
	-800 0 -9.6680042 -111.05295 -800 0 -0.51196156 159.77851 
	-1.0481404 -28.339788 -800 0 -6.7432892 -117.8088 -800 0 
	-800 0 -0.51196156 159.77851 -800 0 -9.6640714 -109.32714 
0.06 -5.6155004 -123.99208 -800 0 -1.4324881 -33.027436 -800 0 
	-800 0 -8.2885871 -114.98601 -800 0 -0.7149108 156.09998 
	-1.4324881 -33.027436 -800 0 -5.5594451 -122.15492 -800 0 
	-800 0 -0.7149108 156.09998 -800 0 -8.2794321 -112.79132 
0.07 -4.6815198 -128.53132 -800 0 -1.8460706 -37.320777 -800 0 
	-800 0 -7.1805355 -118.70572 -800 0 -0.94254887 152.58979 
	-1.8460706 -37.320777 -800 0 -4.6417766 -126.14865 -800 0 
	-800 0 -0.94254887 152.58979 -800 0 -7.166581 -116.09274 
0.08 -3.9505997 -132.67097 -800 0 -2.2782716 -41.237175 -800 0 
	-800 0 -6.2714736 -122.23386 -800 0 -1.1907153 149.25461 
	-2.2782716 -41.237175 -800 0 -3.9185176 -129.78687 -800 0 
	-800 0 -1.1907153 149.25461 -800 0 -6.2538363 -119.21697 
0.09 -3.3693298 -136.44502 -800 0 -2.7208568 -44.800829 -800 0 
	-800 0 -5.5153538 -125.57887 -800 0 -1.4556128 146.09785 
	-2.7208568 -44.800829 -800 0 -3.3406327 -133.08461 -800 0 
	-800 0 -1.4556128 146.09785 -800 0 -5.494748 -122.16396 
0.1 -2.9008128 -139.88552 -800 0 -3.1671405 -48.039808 -800 0 
	-800 0 -4.8800068 -128.74362 -800 0 -1.7336116 143.11949 
	-3.1671405 -48.039808 -800 0 -2.8733839 -136.0661 -800 0 
	-800 0 -1.7336116 143.11949 -800 0 -4.8568723 -124.93341 
0.11 -2.5238396 -143.04 -800 0 -3.616158 -50.953333 -800 0 
	-800 0 -4.3451023 -131.74257 -800 0 -2.0235487 140.33218 
	-3.616158 -50.953333 -800 0 -2.4954663 -138.7866 -800 0 
	-800 0 -2.0235487 140.33218 -800 0 -4.3191303 -127.5501 
0.12 -2.2128334 -145.92037 -800 0 -4.0592954 -53.60525 -800 0 
	-800 0 -3.8882555 -134.56625 -800 0 -2.3199446 137.71325 
	-4.0592954 -53.60525 -800 0 -2.1835708 -141.23833 -800 0 
	-800 0 -2.3199446 137.71325 -800 0 -3.8600813 -129.99144 
0.13 -1.9539495 -148.55914 -800 0 -4.4941205 -56.024428 -800 0 
	-800 0 -3.4956331 -137.22516 -800 0 -2.6203557 135.25447 
	-4.4941205 -56.024428 -800 0 -1.9237725 -143.45223 -800 0 
	-800 0 -2.6203557 135.25447 -800 0 -3.4656348 -132.26748 
0.14 -1.7366509 -150.98485 -800 0 -4.9190017 -58.237276 -800 0 
	-800 0 -3.1563127 -139.7296 -800 0 -2.9227237 132.94671 
	-4.9190017 -58.237276 -800 0 -1.7055217 -145.45603 -800 0 
	-800 0 -2.9227237 132.94671 -800 0 -3.1247238 -134.38864 
0.15 -1.5528295 -153.2226 -800 0 -5.3329167 -60.267484 -800 0 
	-800 0 -2.8615393 -142.08985 -800 0 -3.2253459 130.78038 
	-5.3329167 -60.267484 -800 0 -1.5207236 -147.27431 -800 0 
	-800 0 -3.2253459 130.78038 -800 0 -2.8285204 -136.36544 
0.16 -1.3961744 -155.29479 -800 0 -5.7352807 -62.135996 -800 0 
	-800 0 -2.604234 -144.3161 -800 0 -3.5268323 128.7458 
	-5.7352807 -62.135996 -800 0 -1.3631012 -148.92867 -800 0 
	-800 0 -3.5268323 128.7458 -800 0 -2.5698997 -138.20821 
0.17 -1.2617634 -157.21965 -800 0 -6.1258773 -63.861381 -800 0 
	-800 0 -2.3785966 -146.41814 -800 0 -3.8260761 126.83347 
	-6.1258773 -63.861381 -800 0 -1.2277352 -150.43805 -800 0 
	-800 0 -3.8260761 126.83347 -800 0 -2.3430591 -139.92691 
0.18 -1.1457335 -159.01473 -800 0 -6.5046765 -65.459771 -800 0 
	-800 0 -2.1798779 -148.40538 -800 0 -4.1221984 125.03426 
	-6.5046765 -65.459771 -800 0 -1.1107408 -151.81896 -800 0 
	-800 0 -4.1221984 125.03426 -800 0 -2.1432353 -141.53104 
0.19 -1.0449404 -160.69447 -800 0 -6.8718319 -66.94526 -800 0 
	-800 0 -2.0041511 -150.28674 -800 0 -4.4145166 123.33951 
	-6.8718319 -66.94526 -800 0 -1.0090228 -153.08579 -800 0 
	-800 0 -4.4145166 123.33951 -800 0 -1.9664928 -143.02954 
0.2 -0.95689019 -162.27152 -800 0 -7.2276035 -68.330172 -800 0 
	-800 0 -1.8481513 -152.07052 -800 0 -4.7025116 121.74109 
	-7.2276035 -68.330172 -800 0 -0.92009513 -154.25107 -800 0 
	-800 0 -4.7025116 121.74109 -800 0 -1.8095609 -144.43077 
0.21 -0.88165814 -163.75703 -800 0 -7.5739376 -69.601784 -800 0 
	-800 0 -1.7107515 -153.76527 -800 0 -4.9868168 120.24362 
	-7.5739376 -69.601784 -800 0 -0.84355713 -155.33217 -800 0 
	-800 0 -4.9868168 120.24362 -800 0 -1.6709662 -145.74747 
0.22 -0.81527577 -165.15964 -800 0 -7.909341 -70.794356 -800 0 
	-800 0 -1.587906 -155.37653 -800 0 -5.2660037 118.82742 
	-7.909341 -70.794356 -800 0 -0.77591961 -156.33084 -800 0 
	-800 0 -5.2660037 118.82742 -800 0 -1.5469908 -146.98072 
0.23 -0.75642669 -166.48799 -800 0 -8.2342555 -71.916042 -800 0 
	-800 0 -1.4777006 -156.91105 -800 0 -5.539905 117.48602 
	-8.2342555 -71.916042 -800 0 -0.71587243 -157.25569 -800 0 
	-800 0 -5.539905 117.48602 -800 0 -1.4357205 -148.13728 
0.24 -0.70402416 -167.74965 -800 0 -8.5491284 -72.973982 -800 0 
	-800 0 -1.3785144 -158.37496 -800 0 -5.8084234 116.21352 
	-8.5491284 -72.973982 -800 0 -0.66233398 -158.11424 -800 0 
	-800 0 -5.8084234 116.21352 -800 0 -1.3355342 -149.22332 
0.25 -0.65716549 -168.9512 -800 0 -8.8544033 -73.97444 -800 0 
	-800 0 -1.2889686 -159.77387 -800 0 -6.0715174 115.00451 
	-8.8544033 -73.97444 -800 0 -0.61440573 -158.91307 -800 0 
	-800 0 -6.0715174 115.00451 -800 0 -1.245053 -150.24446 
0.26 -0.61509685 -170.09847 -800 0 -9.1505141 -74.922925 -800 0 
	-800 0 -1.2078861 -161.11287 -800 0 -6.3291899 113.85405 
	-9.1505141 -74.922925 -800 0 -0.57133686 -159.65796 -800 0 
	-800 0 -6.3291899 113.85405 -800 0 -1.1630997 -151.20582 
0.27 -0.57718424 -171.19654 -800 0 -9.4378809 -75.824293 -800 0 
	-800 0 -1.1342579 -162.39663 -800 0 -6.5814786 112.75765 
	-9.4378809 -75.824293 -800 0 -0.53249651 -160.35399 -800 0 
	-800 0 -6.5814786 112.75765 -800 0 -1.0886648 -152.11204 
0.28 -0.54289268 -172.24994 -800 0 -9.7169073 -76.682839 -800 0 
	-800 0 -1.0672158 -163.62936 -800 0 -6.8284476 111.71118 
	-9.7169073 -76.682839 -800 0 -0.49735177 -161.00566 -800 0 
	-800 0 -6.8284476 111.71118 -800 0 -1.0208801 -152.96738 
0.29 -0.51176826 -173.26266 -800 0 -9.987979 -77.50237 -800 0 
	-800 0 -1.0060107 -164.81491 -800 0 -7.0701818 110.71092 
	-9.987979 -77.50237 -800 0 -0.46545022 -161.61694 -800 0 
	-800 0 -7.0701818 110.71092 -800 0 -0.95899555 -153.77569 
0.3 -0.48342405 -174.23824 -800 0 -10.251463 -78.28627 -800 0 
	-800 0 -0.94999322 -165.9568 -800 0 -7.3067815 109.75344 
	-10.251463 -78.28627 -800 0 -0.43640596 -162.19137 -800 0 
	-800 0 -7.3067815 109.75344 -800 0 -0.90236162 -154.54047 
0.31 -0.45878655 -175.17841 -800 0 -10.508285 -79.020115 -800 0 
	-800 0 -0.89951091 -167.05827 -800 0 -7.538902 108.84468 
	-10.508285 -79.020115 -800 0 -0.41073109 -162.73438 -800 0 
	-800 0 -7.538902 108.84468 -800 0 -0.85106905 -155.26723 
0.32 -0.43622293 -176.08731 -800 0 -10.758103 -79.724969 -800 0 
	-800 0 -0.8530958 -168.12198 -800 0 -7.7660551 107.97236 
	-10.758103 -79.724969 -800 0 -0.38720278 -163.24615 -800 0 
	-800 0 -7.7660551 107.97236 -800 0 -0.80390195 -155.95626 
0.33 -0.41549834 -176.96749 -800 0 -11.001241 -80.403181 -800 0 
	-800 0 -0.8103247 -169.15065 -800 0 -7.988372 107.13387 
	-11.001241 -80.403181 -800 0 -0.36558671 -163.72925 -800 0 
	-800 0 -7.988372 107.13387 -800 0 -0.76043667 -156.61026 
0.34 -0.39640931 -177.82123 -800 0 -11.238003 -81.056855 -800 0 
	-800 0 -0.77082645 -170.14672 -800 0 -8.2059866 106.32688 
	-11.238003 -81.056855 -800 0 -0.34567956 -164.18597 -800 0 
	-800 0 -8.2059866 106.32688 -800 0 -0.72030158 -157.23171 
0.35 -0.37877883 -178.6506 -800 0 -11.468676 -81.687884 -800 0 
	-800 0 -0.73427465 -171.11245 -800 0 -8.4190334 105.54921 
	-11.468676 -81.687884 -800 0 -0.32730427 -164.61838 -800 0 
	-800 0 -8.4190334 105.54921 -800 0 -0.68316966 -157.82288 
0.36 -0.36245243 -179.45744 -800 0 -11.693529 -82.297976 -800 0 
	-800 0 -0.70038139 -172.04988 -800 0 -8.6276467 104.79889 
	-11.693529 -82.297976 -800 0 -0.31030609 -165.02833 -800 0 
	-800 0 -8.6276467 104.79889 -800 0 -0.64875244 -158.38583 
0.37 -0.34729483 179.75657 -800 0 -11.912817 -82.888669 -800 0 
	-800 0 -0.66889213 -172.9609 -800 0 -8.831959 104.07413 
	-11.912817 -82.888669 -800 0 -0.29454932 -165.41749 -800 0 
	-800 0 -8.831959 104.07413 -800 0 -0.61679468 -158.92245 
0.38 -0.33318716 178.98994 -800 0 -12.126779 -83.461358 -800 0 
	-800 0 -0.63958116 -173.84723 -800 0 -9.032101 103.37324 
	-12.126779 -83.461358 -800 0 -0.27991455 -165.78739 -800 0 
	-800 0 -9.032101 103.37324 -800 0 -0.58707001 -159.43448 
0.39 -0.32002471 178.24128 -800 0 -12.335639 -84.017308 -800 0 
	-800 0 -0.61224787 -174.71046 -800 0 -9.2282004 102.69472 
	-12.335639 -84.017308 -800 0 -0.26629642 -166.1394 -800 0 
	-800 0 -9.2282004 102.69472 -800 0 -0.55937714 -159.9235 
0.4 -0.3077149 177.50936 -800 0 -12.53961 -84.557669 -800 0 
	-800 0 -0.58671352 -175.55204 -800 0 -9.420382 102.03715 
	-12.53961 -84.557669 -800 0 -0.25360163 -166.47476 -800 0 
	-800 0 -9.420382 102.03715 -800 0 -0.53353667 -160.39099 
0.41 -0.29711736 176.7934 -800 0 -12.739329 -85.070865 -800 0 
	-800 0 -0.56353728 -176.3734 -800 0 -9.6090502 101.40617 
	-12.739329 -85.070865 -800 0 -0.24224155 -166.79614 -800 0 
	-800 0 -9.6090502 101.40617 -800 0 -0.50980372 -160.83935 
0.42 -0.28717698 176.09204 -800 0 -12.934493 -85.571061 -800 0 
	-800 0 -0.54182469 -177.17565 -800 0 -9.7940091 100.79336 
	-12.934493 -85.571061 -800 0 -0.23160414 -167.10289 -800 0 
	-800 0 -9.7940091 100.79336 -800 0 -0.48758392 -161.26864 
0.43 -0.27783271 175.40432 -800 0 -13.125287 -86.059096 -800 0 
	-800 0 -0.5214506 -177.95993 -800 0 -9.9753755 100.19764 
	-13.125287 -86.059096 -800 0 -0.2216279 -167.39599 -800 0 
	-800 0 -9.9753755 100.19764 -800 0 -0.46675169 -161.68003 
0.44 -0.26902998 174.72938 -800 0 -13.311881 -86.535737 -800 0 
	-800 0 -0.50230246 -178.7273 -800 0 -10.153262 99.617994 
	-13.311881 -86.535737 -800 0 -0.21225777 -167.67632 -800 0 
	-800 0 -10.153262 99.617994 -800 0 -0.44719412 -162.07459 
0.45 -0.26071994 174.06642 -800 0 -13.494439 -87.001689 -800 0 
	-800 0 -0.48427893 -179.47874 -800 0 -10.327777 99.053508 
	-13.494439 -87.001689 -800 0 -0.20344434 -167.94469 -800 0 
	-800 0 -10.327777 99.053508 -800 0 -0.42880943 -162.45329 
0.46 -0.25285868 173.41472 -800 0 -13.673114 -87.457597 -800 0 
	-800 0 -0.46728851 179.78485 -800 0 -10.499026 98.503322 
	-13.673114 -87.457597 -800 0 -0.1951432 -168.20184 -800 0 
	-800 0 -10.499026 98.503322 -800 0 -0.41150574 -162.81707 
0.47 -0.24540671 172.77359 -800 0 -13.848051 -87.904055 -800 0 
	-800 0 -0.45124849 179.06263 -800 0 -10.667109 97.966641 
	-13.848051 -87.904055 -800 0 -0.1873143 -168.44846 -800 0 
	-800 0 -10.667109 97.966641 -800 0 -0.39519992 -163.16676 
0.48 -0.2383284 172.14242 -800 0 -14.019389 -88.341612 -800 0 
	-800 0 -0.43608393 178.35383 -800 0 -10.832123 97.442727 
	-14.019389 -88.341612 -800 0 -0.17992147 -168.68517 -800 0 
	-800 0 -10.832123 97.442727 -800 0 -0.37981663 -163.50316 
0.49 -0.23159154 171.52065 -800 0 -14.187256 -88.770771 -800 0 
	-800 0 -0.42172681 177.65772 -800 0 -10.994162 96.930896 
	-14.187256 -88.770771 -800 0 -0.17293198 -168.91256 -800 0 
	-800 0 -10.994162 96.930896 -800 0 -0.36528746 -163.82699 
0.5 -0.22516693 170.90775 -800 0 -14.351776 -89.192001 -800 0 
	-800 0 -0.40811527 176.97364 -800 0 -11.153314 96.43051 
	-14.351776 -89.192001 -800 0 -0.16631614 -169.13116 -800 0 
	-800 0 -11.153314 96.43051 -800 0 -0.35155021 -164.13894 
0.51 -0.21984436 170.30328 -800 0 -14.513388 -89.595911 -800 0 
	-800 0 -0.39579892 176.301 -800 0 -11.309779 95.946387 
	-14.513388 -89.595911 -800 0 -0.16037547 -169.34251 -800 0 
	-800 0 -11.309779 95.946387 -800 0 -0.33883081 -164.44013 
0.52 -0.214762 169.70673 -800 0 -14.671848 -89.993132 -800 0 
	-800 0 -0.38410262 175.63916 -800 0 -11.463511 95.472334 
	-14.671848 -89.993132 -800 0 -0.15473263 -169.54594 -800 0 
	-800 0 -11.463511 95.472334 -800 0 -0.32677467 -164.73062 
0.53 -0.20989962 169.11768 -800 0 -14.827262 -90.384015 -800 0 
	-800 0 -0.37298081 174.98758 -800 0 -11.614593 95.007847 
	-14.827262 -90.384015 -800 0 -0.14936718 -169.7419 -800 0 
	-800 0 -11.614593 95.007847 -800 0 -0.31533608 -165.01095 
0.54 -0.20523875 168.53574 -800 0 -14.979734 -90.768885 -800 0 
	-800 0 -0.36239183 174.34575 -800 0 -11.7631 94.552453 
	-14.979734 -90.768885 -800 0 -0.14426042 -169.93079 -800 0 
	-800 0 -11.7631 94.552453 -800 0 -0.30447322 -165.28165 
0.55 -0.20076246 167.96054 -800 0 -15.129359 -91.148044 -800 0 
	-800 0 -0.35229746 173.71321 -800 0 -11.909107 94.105712 
	-15.129359 -91.148044 -800 0 -0.13939526 -170.11298 -800 0 
	-800 0 -11.909107 94.105712 -800 0 -0.29414774 -165.5432 
0.56 -0.19645524 167.39175 -800 0 -15.27623 -91.521774 -800 0 
	-800 0 -0.34266261 173.0895 -800 0 -12.052685 93.66721 
	-15.27623 -91.521774 -800 0 -0.13475599 -170.28882 -800 0 
	-800 0 -12.052685 93.66721 -800 0 -0.28432442 -165.79605 
0.57 -0.19230288 166.82906 -800 0 -15.420434 -91.890338 -800 0 
	-800 0 -0.33345508 172.47421 -800 0 -12.193902 93.236563 
	-15.420434 -91.890338 -800 0 -0.13032822 -170.45864 -800 0 
	-800 0 -12.193902 93.236563 -800 0 -0.27497087 -166.04062 
0.58 -0.18829229 166.27217 -800 0 -15.562056 -92.25398 -800 0 
	-800 0 -0.32464518 171.86695 -800 0 -12.332825 92.813407 
	-15.562056 -92.25398 -800 0 -0.12609866 -170.62273 -800 0 
	-800 0 -12.332825 92.813407 -800 0 -0.26605729 -166.27732 
0.59 -0.18441142 165.7208 -800 0 -15.701174 -92.612928 -800 0 
	-800 0 -0.31620557 171.26736 -800 0 -12.469517 92.397404 
	-15.701174 -92.612928 -800 0 -0.12205511 -170.78139 -800 0 
	-800 0 -12.469517 92.397404 -800 0 -0.2575562 -166.50651 
0.6 -0.18064915 165.17471 -800 0 -15.837865 -92.967398 -800 0 
	-800 0 -0.30811101 170.67509 -800 0 -12.604037 91.988232 
	-15.837865 -92.967398 -800 0 -0.1181863 -170.93488 -800 0 
	-800 0 -12.604037 91.988232 -800 0 -0.24944223 -166.72854 
0.61 -0.17771048 164.64416 -800 0 -15.972254 -93.304375 -800 0 
	-800 0 -0.30086563 170.09 -800 0 -12.736451 91.589854 
	-15.972254 -93.304375 -800 0 -0.11472173 -171.08408 -800 0 
	-800 0 -12.736451 91.589854 -800 0 -0.24189471 -166.94398 
0.62 -0.17486541 164.11838 -800 0 -16.104343 -93.637573 -800 0 
	-800 0 -0.2939102 169.51157 -800 0 -12.866801 91.197553 
	-16.104343 -93.637573 -800 0 -0.11139673 -171.22854 -800 0 
	-800 0 -12.866801 91.197553 -800 0 -0.23467675 -167.15288 
0.63 -0.172106 163.59715 -800 0 -16.234199 -93.967153 -800 0 
	-800 0 -0.28722543 168.93953 -800 0 -12.995142 90.811074 
	-16.234199 -93.967153 -800 0 -0.10820343 -171.3685 -800 0 
	-800 0 -12.995142 90.811074 -800 0 -0.2277691 -167.35554 
0.64 -0.16942489 163.08029 -800 0 -16.361885 -94.293268 -800 0 
	-800 0 -0.28079342 168.37361 -800 0 -13.121527 90.430171 
	-16.361885 -94.293268 -800 0 -0.10513451 -171.50416 -800 0 
	-800 0 -13.121527 90.430171 -800 0 -0.22115388 -167.55223 
0.65 -0.16681526 162.56761 -800 0 -16.487464 -94.616061 -800 0 
	-800 0 -0.27459757 167.81355 -800 0 -13.246005 90.054615 
	-16.487464 -94.616061 -800 0 -0.10218318 -171.63572 -800 0 
	-800 0 -13.246005 90.054615 -800 0 -0.21481451 -167.74321 
0.66 -0.16427072 162.05893 -800 0 -16.610992 -94.935668 -800 0 
	-800 0 -0.26862242 167.25912 -800 0 -13.368624 89.684189 
	-16.610992 -94.935668 -800 0 -0.09934312 -171.76335 -800 0 
	-800 0 -13.368624 89.684189 -800 0 -0.20873555 -167.92873 
0.67 -0.16178534 161.55408 -800 0 -16.732527 -95.252214 -800 0 
	-800 0 -0.2628536 166.71008 -800 0 -13.489432 89.318689 
	-16.732527 -95.252214 -800 0 -0.096608435 -171.88724 -800 0 
	-800 0 -13.489432 89.318689 -800 0 -0.20290265 -168.10902 
0.68 -0.15935358 161.05291 -800 0 -16.852122 -95.565821 -800 0 
	-800 0 -0.25727771 166.16623 -800 0 -13.608473 88.957922 
	-16.852122 -95.565821 -800 0 -0.093973634 -172.00754 -800 0 
	-800 0 -13.608473 88.957922 -800 0 -0.19730242 -168.2843 
0.69 -0.15697025 160.55527 -800 0 -16.969828 -95.876599 -800 0 
	-800 0 -0.25188226 165.62737 -800 0 -13.725791 88.601703 
	-16.969828 -95.876599 -800 0 -0.091433586 -172.12441 -800 0 
	-800 0 -13.725791 88.601703 -800 0 -0.1919224 -168.45477 
0.7 -0.15463052 160.06102 -800 0 -17.085695 -96.184656 -800 0 
	-800 0 -0.24665558 165.09329 -800 0 -13.841426 88.24986 
	-17.085695 -96.184656 -800 0 -0.088983499 -172.23799 -800 0 
	-800 0 -13.841426 88.24986 -800 0 -0.18675093 -168.62063 
0.71 -0.15306083 159.54883 -800 0 -17.199711 -96.49404 -800 0 
	-800 0 -0.24215156 164.56413 -800 0 -13.955426 87.905737 
	-17.199711 -96.49404 -800 0 -0.086801158 -172.34873 -800 0 
	-800 0 -13.955426 87.905737 -800 0 -0.18193047 -168.7822 
0.72 -0.15150181 159.03973 -800 0 -17.311964 -96.801129 -800 0 
	-800 0 -0.23778904 164.03938 -800 0 -14.067819 87.565535 
	-17.311964 -96.801129 -800 0 -0.084690156 -172.45643 -800 0 
	-800 0 -14.067819 87.565535 -800 0 -0.17728938 -168.93951 
0.73 -0.14994994 158.53361 -800 0 -17.422498 -97.106003 -800 0 
	-800 0 -0.23355884 163.51886 -800 0 -14.178643 87.229111 
	-17.422498 -97.106003 -800 0 -0.082647159 -172.56122 -800 0 
	-800 0 -14.178643 87.229111 -800 0 -0.17281861 -169.09272 
0.74 -0.14840188 158.03036 -800 0 -17.531355 -97.40874 -800 0 
	-800 0 -0.22945239 163.00244 -800 0 -14.287933 86.896331 
	-17.531355 -97.40874 -800 0 -0.080669033 -172.66322 -800 0 
	-800 0 -14.287933 86.896331 -800 0 -0.1685097 -169.24201 
0.75 -0.14685448 157.52986 -800 0 -17.638576 -97.709412 -800 0 
	-800 0 -0.2254616 162.48996 -800 0 -14.395724 86.567064 
	-17.638576 -97.709412 -800 0 -0.07875283 -172.76253 -800 0 
	-800 0 -14.395724 86.567064 -800 0 -0.16435468 -169.38752 
0.76 -0.14530479 157.03202 -800 0 -17.7442 -98.008086 -800 0 
	-800 0 -0.22157891 161.98128 -800 0 -14.50205 86.241189 
	-17.7442 -98.008086 -800 0 -0.076895775 -172.85927 -800 0 
	-800 0 -14.50205 86.241189 -800 0 -0.1603461 -169.52939 
0.77 -0.14375001 156.53674 -800 0 -17.848264 -98.304827 -800 0 
	-800 0 -0.21779721 161.47627 -800 0 -14.606944 85.918589 
	-17.848264 -98.304827 -800 0 -0.075095254 -172.95352 -800 0 
	-800 0 -14.606944 85.918589 -800 0 -0.15647695 -169.66776 
0.78 -0.1421875 156.04394 -800 0 -17.950804 -98.599699 -800 0 
	-800 0 -0.21410978 160.9748 -800 0 -14.710435 85.599154 
	-17.950804 -98.599699 -800 0 -0.073348801 -173.04539 -800 0 
	-800 0 -14.710435 85.599154 -800 0 -0.15274064 -169.80275 
0.79 -0.14061477 155.55352 -800 0 -18.051855 -98.892758 -800 0 
	-800 0 -0.21051033 160.47675 -800 0 -14.812556 85.282778 
	-18.051855 -98.892758 -800 0 -0.071654091 -173.13496 -800 0 
	-800 0 -14.812556 85.282778 -800 0 -0.14913095 -169.9345 
0.8 -0.13902944 155.06541 -800 0 -18.15145 -99.184062 -800 0 
	-800 0 -0.20699291 159.982 -800 0 -14.913334 84.96936 
	-18.15145 -99.184062 -800 0 -0.070008927 -173.22232 -800 0 
	-800 0 -14.913334 84.96936 -800 0 -0.14564206 -170.06311 
0.81 -0.13811839 154.60231 -800 0 -18.249835 -99.457111 -800 0 
	-800 0 -0.20416303 159.49069 -800 0 -15.012825 84.66166 
	-18.249835 -99.457111 -800 0 -0.068550023 -173.3082 -800 0 
	-800 0 -15.012825 84.66166 -800 0 -0.14238923 -170.18879 
0.82 -0.13720298 154.14134 -800 0 -18.346818 -99.728701 -800 0 
	-800 0 -0.20140034 159.00243 -800 0 -15.111027 84.356622 
	-18.346818 -99.728701 -800 0 -0.067129817 -173.392 -800 0 
	-800 0 -15.111027 84.356622 -800 0 -0.13924088 -170.31155 
0.83 -0.13628146 153.68243 -800 0 -18.44243 -99.998874 -800 0 
	-800 0 -0.19870006 158.51714 -800 0 -15.207967 84.05416 
	-18.44243 -99.998874 -800 0 -0.065746817 -173.47379 -800 0 
	-800 0 -15.207967 84.05416 -800 0 -0.13619238 -170.4315 
0.84 -0.13535217 153.22549 -800 0 -18.5367 -100.26767 -800 0 
	-800 0 -0.19605766 158.0347 -800 0 -15.303671 83.754195 
	-18.5367 -100.26767 -800 0 -0.064399603 -173.55365 -800 0 
	-800 0 -15.303671 83.754195 -800 0 -0.1332394 -170.54873 
0.85 -0.13441352 152.77048 -800 0 -18.629658 -100.53513 -800 0 
	-800 0 -0.19346887 157.55502 -800 0 -15.398163 83.456651 
	-18.629658 -100.53513 -800 0 -0.063086828 -173.63165 -800 0 
	-800 0 -15.398163 83.456651 -800 0 -0.13037782 -170.66333 
0.86 -0.13346398 152.31731 -800 0 -18.72133 -100.80128 -800 0 
	-800 0 -0.19092964 157.07803 -800 0 -15.491467 83.161453 
	-18.72133 -100.80128 -800 0 -0.06180721 -173.70784 -800 0 
	-800 0 -15.491467 83.161453 -800 0 -0.12760376 -170.7754 
0.87 -0.13250212 151.86594 -800 0 -18.811743 -101.06618 -800 0 
	-800 0 -0.18843613 156.60362 -800 0 -15.583607 82.868532 
	-18.811743 -101.06618 -800 0 -0.060559531 -173.7823 -800 0 
	-800 0 -15.583607 82.868532 -800 0 -0.12491353 -170.88501 
0.88 -0.13152654 151.4163 -800 0 -18.900923 -101.32983 -800 0 
	-800 0 -0.18598468 156.13173 -800 0 -15.674605 82.577821 
	-18.900923 -101.32983 -800 0 -0.059342631 -173.85507 -800 0 
	-800 0 -15.674605 82.577821 -800 0 -0.12230364 -170.99225 
0.89 -0.13053592 150.96834 -800 0 -18.988894 -101.59229 -800 0 
	-800 0 -0.18357184 155.66227 -800 0 -15.764483 82.289254 
	-18.988894 -101.59229 -800 0 -0.058155404 -173.92622 -800 0 
	-800 0 -15.764483 82.289254 -800 0 -0.1197708 -171.0972 
0.9 -0.129529 150.522 -800 0 -19.075681 -101.85358 -800 0 
	-800 0 -0.18119433 155.19516 -800 0 -15.853262 82.00277 
	-19.075681 -101.85358 -800 0 -0.056996799 -173.9958 -800 0 
	-800 0 -15.853262 82.00277 -800 0 -0.11731187 -171.19992 
0.91 -0.1292077 150.04976 -800 0 -19.16118 -102.12288 -800 0 
	-800 0 -0.17941051 154.73023 -800 0 -15.940943 81.720409 
	-19.16118 -102.12288 -800 0 -0.055982688 -174.064 -800 0 
	-800 0 -15.940943 81.720409 -800 0 -0.11502168 -171.30056 
0.92 -0.12884325 149.57899 -800 0 -19.245528 -102.3912 -800 0 
	-800 0 -0.17765322 154.26749 -800 0 -16.027565 81.439924 
	-19.245528 -102.3912 -800 0 -0.054990253 -174.13072 -800 0 
	-800 0 -16.027565 81.439924 -800 0 -0.11279556 -171.39911 
0.93 -0.12843465 149.10965 -800 0 -19.328746 -102.65859 -800 0 
	-800 0 -0.17591975 153.80687 -800 0 -16.113146 81.161265 
	-19.328746 -102.65859 -800 0 -0.054018816 -174.19601 -800 0 
	-800 0 -16.113146 81.161265 -800 0 -0.110631 -171.49565 
0.94 -0.12798093 148.64168 -800 0 -19.410854 -102.92505 -800 0 
	-800 0 -0.17420754 153.34829 -800 0 -16.197704 80.884382 
	-19.410854 -102.92505 -800 0 -0.053067733 -174.25993 -800 0 
	-800 0 -16.197704 80.884382 -800 0 -0.10852564 -171.59023 
0.95 -0.12748118 148.17504 -800 0 -19.491874 -103.19062 -800 0 
	-800 0 -0.17251412 152.89172 -800 0 -16.281259 80.609225 
	-19.491874 -103.19062 -800 0 -0.05213638 -174.32251 -800 0 
	-800 0 -16.281259 80.609225 -800 0 -0.10647723 -171.68292 
0.96 -0.1269345 147.7097 -800 0 -19.571824 -103.45531 -800 0 
	-800 0 -0.17083715 152.43707 -800 0 -16.363828 80.335749 
	-19.571824 -103.45531 -800 0 -0.051224164 -174.3838 -800 0 
	-800 0 -16.363828 80.335749 -800 0 -0.10448361 -171.77377 
0.97 -0.12634001 147.2456 -800 0 -19.650725 -103.71914 -800 0 
	-800 0 -0.16917439 151.98429 -800 0 -16.445427 80.063909 
	-19.650725 -103.71914 -800 0 -0.05033051 -174.44383 -800 0 
	-800 0 -16.445427 80.063909 -800 0 -0.10254275 -171.86283 
0.98 -0.12569689 146.78272 -800 0 -19.728595 -103.98212 -800 0 
	-800 0 -0.1675237 151.53334 -800 0 -16.526074 79.793661 
	-19.728595 -103.98212 -800 0 -0.04945487 -174.50265 -800 0 
	-800 0 -16.526074 79.793661 -800 0 -0.1006527 -171.95017 
0.99 -0.12500433 146.321 -800 0 -19.805451 -104.24429 -800 0 
	-800 0 -0.16588304 151.08414 -800 0 -16.605785 79.524966 
	-19.805451 -104.24429 -800 0 -0.048596714 -174.56029 -800 0 
	-800 0 -16.605785 79.524966 -800 0 -0.098811597 -172.03583 
1 -0.12426153 145.86041 -800 0 -19.881312 -104.50565 -800 0 
	-800 0 -0.16425044 150.63666 -800 0 -16.684575 79.257782 
	-19.881312 -104.50565 -800 0 -0.047755536 -174.61679 -800 0 
	-800 0 -16.684575 79.257782 -800 0 -0.09701768 -172.11987 
1.01 -0.12366419 145.42292 -800 0 -19.955618 -104.74595 -800 0 
	-800 0 -0.16312996 150.1903 -800 0 -16.762394 78.993469 
	-19.955618 -104.74595 -800 0 -0.047036191 -174.67276 -800 0 
	-800 0 -16.762394 78.993469 -800 0 -0.095350406 -172.20236 
1.02 -0.12302591 144.98646 -800 0 -20.028959 -104.98562 -800 0 
	-800 0 -0.16201185 149.74553 -800 0 -16.839321 78.730518 
	-20.028959 -104.98562 -800 0 -0.04632861 -174.72763 -800 0 
	-800 0 -16.839321 78.730518 -800 0 -0.093723993 -172.28332 
1.03 -0.12234616 144.55101 -800 0 -20.101351 -105.22465 -800 0 
	-800 0 -0.16089447 149.3023 -800 0 -16.915372 78.468896 
	-20.101351 -105.22465 -800 0 -0.045632528 -174.78144 -800 0 
	-800 0 -16.915372 78.468896 -800 0 -0.092137027 -172.36279 
1.04 -0.12162444 144.11654 -800 0 -20.17281 -105.46307 -800 0 
	-800 0 -0.15977623 148.86055 -800 0 -16.990559 78.208569 
	-20.17281 -105.46307 -800 0 -0.044947687 -174.83422 -800 0 
	-800 0 -16.990559 78.208569 -800 0 -0.090588157 -172.4408 
1.05 -0.12086026 143.68301 -800 0 -20.243351 -105.70089 -800 0 
	-800 0 -0.15865562 148.42025 -800 0 -17.064896 77.949505 
	-20.243351 -105.70089 -800 0 -0.044273838 -174.88599 -800 0 
	-800 0 -17.064896 77.949505 -800 0 -0.089076091 -172.51741 
1.06 -0.12005313 143.25038 -800 0 -20.312989 -105.93811 -800 0 
	-800 0 -0.15753117 147.98135 -800 0 -17.138397 77.691673 
	-20.312989 -105.93811 -800 0 -0.043610736 -174.93679 -800 0 
	-800 0 -17.138397 77.691673 -800 0 -0.087599592 -172.59264 
1.07 -0.11920258 142.81864 -800 0 -20.381739 -106.17475 -800 0 
	-800 0 -0.15640148 147.54381 -800 0 -17.211076 77.435045 
	-20.381739 -106.17475 -800 0 -0.042958144 -174.98664 -800 0 
	-800 0 -17.211076 77.435045 -800 0 -0.086157478 -172.66654 
1.08 -0.11830814 142.38774 -800 0 -20.449616 -106.41081 -800 0 
	-800 0 -0.15526521 147.10759 -800 0 -17.282943 77.17959 
	-20.449616 -106.41081 -800 0 -0.042315831 -175.03557 -800 0 
	-800 0 -17.282943 77.17959 -800 0 -0.084748613 -172.73914 
1.09 -0.11736935 141.95766 -800 0 -20.516633 -106.64632 -800 0 
	-800 0 -0.15412104 146.67264 -800 0 -17.354013 76.925281 
	-20.516633 -106.64632 -800 0 -0.041683572 -175.0836 -800 0 
	-800 0 -17.354013 76.925281 -800 0 -0.083371913 -172.81048 
1.1 -0.11638576 141.52837 -800 0 -20.582804 -106.88128 -800 0 
	-800 0 -0.15296773 146.23893 -800 0 -17.424296 76.672091 
	-20.582804 -106.88128 -800 0 -0.041061148 -175.13077 -800 0 
	-800 0 -17.424296 76.672091 -800 0 -0.082026336 -172.88059 
1.11 -0.1163316 141.08754 -800 0 -20.648435 -107.12547 -800 0 
	-800 0 -0.15226563 145.80553 -800 0 -17.4937 76.420778 
	-20.648435 -107.12547 -800 0 -0.040527524 -175.17715 -800 0 
	-800 0 -17.4937 76.420778 -800 0 -0.080779349 -172.94954 
1.12 -0.11622573 140.64741 -800 0 -20.713236 -107.36924 -800 0 
	-800 0 -0.1515504 145.37327 -800 0 -17.56234 76.170471 
	-20.713236 -107.36924 -800 0 -0.040000548 -175.22271 -800 0 
	-800 0 -17.56234 76.170471 -800 0 -0.079559227 -173.01732 
1.13 -0.11606768 140.20792 -800 0 -20.777219 -107.6126 -800 0 
	-800 0 -0.15082094 144.94211 -800 0 -17.630227 75.921146 
	-20.777219 -107.6126 -800 0 -0.039480127 -175.26747 -800 0 
	-800 0 -17.630227 75.921146 -800 0 -0.078365137 -173.08397 
1.14 -0.11585697 139.76907 -800 0 -20.840395 -107.85555 -800 0 
	-800 0 -0.15007623 144.51202 -800 0 -17.697372 75.672781 
	-20.840395 -107.85555 -800 0 -0.038966169 -175.31144 -800 0 
	-800 0 -17.697372 75.672781 -800 0 -0.077196283 -173.14951 
1.15 -0.11559316 139.33082 -800 0 -20.902778 -108.0981 -800 0 
	-800 0 -0.14931524 144.08296 -800 0 -17.763785 75.425353 
	-20.902778 -108.0981 -800 0 -0.038458585 -175.35465 -800 0 
	-800 0 -17.763785 75.425353 -800 0 -0.076051897 -173.21397 
1.16 -0.11527577 138.89315 -800 0 -20.964378 -108.34025 -800 0 
	-800 0 -0.148537 143.6549 -800 0 -17.829476 75.178842 
	-20.964378 -108.34025 -800 0 -0.037957283 -175.39712 -800 0 
	-800 0 -17.829476 75.178842 -800 0 -0.074931244 -173.27739 
1.17 -0.11490436 138.45603 -800 0 -21.025206 -108.58202 -800 0 
	-800 0 -0.14774056 143.2278 -800 0 -17.894456 74.933226 
	-21.025206 -108.58202 -800 0 -0.037462173 -175.43887 -800 0 
	-800 0 -17.894456 74.933226 -800 0 -0.073833615 -173.33978 
1.18 -0.11447847 138.01944 -800 0 -21.085275 -108.8234 -800 0 
	-800 0 -0.146925 142.80165 -800 0 -17.958735 74.688485 
	-21.085275 -108.8234 -800 0 -0.036973165 -175.47991 -800 0 
	-800 0 -17.958735 74.688485 -800 0 -0.072758328 -173.40117 
1.19 -0.11399768 137.58336 -800 0 -21.144593 -109.06441 -800 0 
	-800 0 -0.14608943 142.37639 -800 0 -18.022322 74.4446 
	-21.144593 -109.06441 -800 0 -0.03649017 -175.52027 -800 0 
	-800 0 -18.022322 74.4446 -800 0 -0.071704727 -173.46158 
1.2 -0.11346154 137.14775 -800 0 -21.203172 -109.30505 -800 0 
	-800 0 -0.14523299 141.95201 -800 0 -18.085227 74.20155 
	-21.203172 -109.30505 -800 0 -0.036013101 -175.55996 -800 0 
	-800 0 -18.085227 74.20155 -800 0 -0.070672183 -173.52105 
1.21 -0.11368934 136.7103 -800 0 -21.261138 -109.54465 -800 0 
	-800 0 -0.1448356 141.52753 -800 0 -18.147367 73.959615 
	-21.261138 -109.54465 -800 0 -0.035610432 -175.59921 -800 0 
	-800 0 -18.147367 73.959615 -800 0 -0.069716874 -173.57961 
1.22 -0.1138591 136.27325 -800 0 -21.318378 -109.78399 -800 0 
	-800 0 -0.1444146 141.10383 -800 0 -18.208842 73.718427 
	-21.318378 -109.78399 -800 0 -0.035211238 -175.63783 -800 0 
	-800 0 -18.208842 73.718427 -800 0 -0.068779697 -173.63726 
1.23 -0.11397041 135.83657 -800 0 -21.374902 -110.02307 -800 0 
	-800 0 -0.14396922 140.6809 -800 0 -18.269661 73.47797 
	-21.374902 -110.02307 -800 0 -0.034815517 -175.67581 -800 0 
	-800 0 -18.269661 73.47797 -800 0 -0.067860148 -173.69402 
1.24 -0.11402288 135.40024 -800 0 -21.43072 -110.2619 -800 0 
	-800 0 -0.14349871 140.2587 -800 0 -18.329832 73.238227 
	-21.43072 -110.2619 -800 0 -0.034423265 -175.71319 -800 0 
	-800 0 -18.329832 73.238227 -800 0 -0.066957742 -173.74993 
1.25 -0.11401609 134.96424 -800 0 -21.48584 -110.50048 -800 0 
	-800 0 -0.14300236 139.83721 -800 0 -18.389363 72.999182 
	-21.48584 -110.50048 -800 0 -0.034034476 -175.74997 -800 0 
	-800 0 -18.389363 72.999182 -800 0 -0.066072011 -173.805 
1.26 -0.11394965 134.52856 -800 0 -21.540272 -110.73881 -800 0 
	-800 0 -0.14247945 139.41639 -800 0 -18.448264 72.76082 
	-21.540272 -110.73881 -800 0 -0.03364914 -175.78617 -800 0 
	-800 0 -18.448264 72.76082 -800 0 -0.065202501 -173.85924 
1.27 -0.11382317 134.09316 -800 0 -21.594026 -110.9769 -800 0 
	-800 0 -0.14192929 138.99622 -800 0 -18.506542 72.523125 
	-21.594026 -110.9769 -800 0 -0.033267248 -175.8218 -800 0 
	-800 0 -18.506542 72.523125 -800 0 -0.064348778 -173.91268 
1.28 -0.11363624 133.65803 -800 0 -21.64711 -111.21475 -800 0 
	-800 0 -0.14135122 138.57668 -800 0 -18.564205 72.286083 
	-21.64711 -111.21475 -800 0 -0.032888785 -175.85688 -800 0 
	-800 0 -18.564205 72.286083 -800 0 -0.06351042 -173.96534 
1.29 -0.11338848 133.22315 -800 0 -21.699532 -111.45237 -800 0 
	-800 0 -0.14074458 138.15774 -800 0 -18.621261 72.049679 
	-21.699532 -111.45237 -800 0 -0.032513737 -175.89141 -800 0 
	-800 0 -18.621261 72.049679 -800 0 -0.06268702 -174.01723 
1.3 -0.11307949 132.78849 -800 0 -21.751301 -111.68976 -800 0 
	-800 0 -0.14010874 137.73937 -800 0 -18.677716 71.813898 
	-21.751301 -111.68976 -800 0 -0.032142089 -175.92542 -800 0 
	-800 0 -18.677716 71.813898 -800 0 -0.061878185 -174.06838 
1.31 -0.11355151 132.3517 -800 0 -21.802532 -111.92661 -800 0 
	-800 0 -0.1399638 137.32065 -800 0 -18.733518 71.57861 
	-21.802532 -111.92661 -800 0 -0.031834154 -175.95911 -800 0 
	-800 0 -18.733518 71.57861 -800 0 -0.061131294 -174.11879 
1.32 -0.11396009 131.91506 -800 0 -21.853119 -112.16333 -800 0 
	-800 0 -0.13978782 136.90243 -800 0 -18.788733 71.343874 
	-21.853119 -112.16333 -800 0 -0.03152772 -175.9923 -800 0 
	-800 0 -18.788733 71.343874 -800 0 -0.060396898 -174.16848 
1.33 -0.11430485 131.47854 -800 0 -21.903072 -112.39991 -800 0 
	-800 0 -0.13958022 136.48469 -800 0 -18.84337 71.109676 
	-21.903072 -112.39991 -800 0 -0.031222831 -176.02498 -800 0 
	-800 0 -18.84337 71.109676 -800 0 -0.059674685 -174.21747 
1.34 -0.1145854 131.04214 -800 0 -21.952397 -112.63636 -800 0 
	-800 0 -0.13934044 136.0674 -800 0 -18.897435 70.876004 
	-21.952397 -112.63636 -800 0 -0.030919526 -176.05718 -800 0 
	-800 0 -18.897435 70.876004 -800 0 -0.058964352 -174.26579 
1.35 -0.11480137 130.60582 -800 0 -22.001103 -112.87268 -800 0 
	-800 0 -0.1390679 135.65054 -800 0 -18.950936 70.642846 
	-22.001103 -112.87268 -800 0 -0.030617842 -176.08891 -800 0 
	-800 0 -18.950936 70.642846 -800 0 -0.058265606 -174.31343 
1.36 -0.11495237 130.16958 -800 0 -22.049196 -113.10887 -800 0 
	-800 0 -0.13876208 135.23408 -800 0 -19.003879 70.410191 
	-22.049196 -113.10887 -800 0 -0.030317813 -176.12017 -800 0 
	-800 0 -19.003879 70.410191 -800 0 -0.057578163 -174.36042 
1.37 -0.11503803 129.73339 -800 0 -22.096685 -113.34493 -800 0 
	-800 0 -0.13842243 134.81802 -800 0 -19.05627 70.178026 
	-22.096685 -113.34493 -800 0 -0.030019467 -176.15097 -800 0 
	-800 0 -19.05627 70.178026 -800 0 -0.056901748 -174.40677 
1.38 -0.11505796 129.29724 -800 0 -22.143577 -113.58087 -800 0 
	-800 0 -0.13804843 134.40231 -800 0 -19.108117 69.946341 
	-22.143577 -113.58087 -800 0 -0.029722834 -176.18133 -800 0 
	-800 0 -19.108117 69.946341 -800 0 -0.056236094 -174.45249 
1.39 -0.11501179 128.86111 -800 0 -22.189878 -113.81668 -800 0 
	-800 0 -0.13763957 133.98695 -800 0 -19.159425 69.715123 
	-22.189878 -113.81668 -800 0 -0.029427937 -176.21125 -800 0 
	-800 0 -19.159425 69.715123 -800 0 -0.055580944 -174.4976 
1.4 -0.11489915 128.42499 -800 0 -22.235597 -114.05238 -800 0 
	-800 0 -0.13719534 133.5719 -800 0 -19.210201 69.484364 
	-22.235597 -114.05238 -800 0 -0.029134798 -176.24075 -800 0 
	-800 0 -19.210201 69.484364 -800 0 -0.054936046 -174.54211 
1.41 -0.1155843 127.9864 -800 0 -22.28083 -114.28808 -800 0 
	-800 0 -0.13724327 133.15615 -800 0 -19.260387 69.253532 
	-22.28083 -114.28808 -800 0 -0.02889725 -176.27002 -800 0 
	-800 0 -19.260387 69.253532 -800 0 -0.054343194 -174.58602 
1.42 -0.1162011 127.54774 -800 0 -22.325487 -114.52375 -800 0 
	-800 0 -0.13725451 132.74064 -800 0 -19.310052 69.023097 
	-22.325487 -114.52375 -800 0 -0.028659946 -176.29888 -800 0 
	-800 0 -19.310052 69.023097 -800 0 -0.05375905 -174.62936 
1.43 -0.11674917 127.10898 -800 0 -22.369575 -114.75938 -800 0 
	-800 0 -0.13722857 132.32537 -800 0 -19.359202 68.793048 
	-22.369575 -114.75938 -800 0 -0.028422952 -176.32733 -800 0 
	-800 0 -19.359202 68.793048 -800 0 -0.053183419 -174.67214 
1.44 -0.11722812 126.67012 -800 0 -22.413101 -114.99498 -800 0 
	-800 0 -0.137165 131.91032 -800 0 -19.407844 68.563377 
	-22.413101 -114.99498 -800 0 -0.02818633 -176.35539 -800 0 
	-800 0 -19.407844 68.563377 -800 0 -0.052616108 -174.71437 
1.45 -0.11763756 126.23113 -800 0 -22.456071 -115.23053 -800 0 
	-800 0 -0.13706335 131.49545 -800 0 -19.455982 68.334073 
	-22.456071 -115.23053 -800 0 -0.027950137 -176.38307 -800 0 
	-800 0 -19.455982 68.334073 -800 0 -0.052056932 -174.75606 
1.46 -0.11797711 125.79201 -800 0 -22.498491 -115.46606 -800 0 
	-800 0 -0.13692317 131.08076 -800 0 -19.503623 68.105127 
	-22.498491 -115.46606 -800 0 -0.027714427 -176.41036 -800 0 
	-800 0 -19.503623 68.105127 -800 0 -0.051505711 -174.79722 
1.47 -0.11824639 125.35273 -800 0 -22.540368 -115.70155 -800 0 
	-800 0 -0.13674401 130.66623 -800 0 -19.550771 67.876532 
	-22.540368 -115.70155 -800 0 -0.027479252 -176.43729 -800 0 
	-800 0 -19.550771 67.876532 -800 0 -0.050962268 -174.83786 
1.48 -0.11844501 124.91327 -800 0 -22.581709 -115.937 -800 0 
	-800 0 -0.13652546 130.25183 -800 0 -19.597433 67.648277 
	-22.581709 -115.937 -800 0 -0.027244658 -176.46385 -800 0 
	-800 0 -19.597433 67.648277 -800 0 -0.050426433 -174.87799 
1.49 -0.11857259 124.47363 -800 0 -22.622518 -116.17243 -800 0 
	-800 0 -0.13626708 129.83755 -800 0 -19.643614 67.420354 
	-22.622518 -116.17243 -800 0 -0.027010692 -176.49006 -800 0 
	-800 0 -19.643614 67.420354 -800 0 -0.049898039 -174.91762 
1.5 -0.11862876 124.03379 -800 0 -22.662802 -116.40783 -800 0 
	-800 0 -0.13596845 129.42337 -800 0 -19.689319 67.192754 
	-22.662802 -116.40783 -800 0 -0.026777394 -176.51592 -800 0 
	-800 0 -19.689319 67.192754 -800 0 -0.049376927 -174.95677 
1.51 -0.1195005 123.59114 -800 0 -22.702639 -116.64381 -800 0 
	-800 0 -0.13616825 129.00815 -800 0 -19.73449 66.964575 
	-22.702639 -116.64381 -800 0 -0.02659334 -176.54161 -800 0 
	-800 0 -19.73449 66.964575 -800 0 -0.048900456 -174.99543 
1.52 -0.12029917 123.1482 -800 0 -22.741956 -116.87984 -800 0 
	-800 0 -0.13632682 128.59298 -800 0 -19.779194 66.736668 
	-22.741956 -116.87984 -800 0 -0.02640872 -176.56697 -800 0 
	-800 0 -19.779194 66.736668 -800 0 -0.048430082 -175.03362 
1.53 -0.12102438 122.70498 -800 0 -22.78076 -117.1159 -800 0 
	-800 0 -0.13644378 128.17782 -800 0 -19.823437 66.509024 
	-22.78076 -117.1159 -800 0 -0.026223607 -176.59199 -800 0 
	-800 0 -19.823437 66.509024 -800 0 -0.04796568 -175.07135 
1.54 -0.12167573 122.26145 -800 0 -22.819055 -117.35201 -800 0 
	-800 0 -0.13651872 127.76267 -800 0 -19.867223 66.281636 
	-22.819055 -117.35201 -800 0 -0.026038072 -176.61669 -800 0 
	-800 0 -19.867223 66.281636 -800 0 -0.047507129 -175.10863 
1.55 -0.1222528 121.8176 -800 0 -22.856849 -117.58816 -800 0 
	-800 0 -0.13655126 127.3475 -800 0 -19.910558 66.054498 
	-22.856849 -117.58816 -800 0 -0.025852182 -176.64107 -800 0 
	-800 0 -19.910558 66.054498 -800 0 -0.047054309 -175.14547 
1.56 -0.1227552 121.37342 -800 0 -22.894146 -117.82435 -800 0 
	-800 0 -0.13654102 126.93231 -800 0 -19.953447 65.827601 
	-22.894146 -117.82435 -800 0 -0.025666 -176.66514 -800 0 
	-800 0 -19.953447 65.827601 -800 0 -0.046607107 -175.18187 
1.57 -0.12318252 120.92889 -800 0 -22.930952 -118.06058 -800 0 
	-800 0 -0.13648762 126.51707 -800 0 -19.995894 65.60094 
	-22.930952 -118.06058 -800 0 -0.025479586 -176.6889 -800 0 
	-800 0 -19.995894 65.60094 -800 0 -0.046165408 -175.21785 
1.58 -0.12353437 120.484 -800 0 -22.967273 -118.29685 -800 0 
	-800 0 -0.13639069 126.10177 -800 0 -20.037904 65.374507 
	-22.967273 -118.29685 -800 0 -0.025292999 -176.71237 -800 0 
	-800 0 -20.037904 65.374507 -800 0 -0.045729104 -175.25341 
1.59 -0.12381035 120.03874 -800 0 -23.003113 -118.53317 -800 0 
	-800 0 -0.13624985 125.68639 -800 0 -20.079481 65.148295 
	-23.003113 -118.53317 -800 0 -0.025106293 -176.73554 -800 0 
	-800 0 -20.079481 65.148295 -800 0 -0.045298086 -175.28857 
1.6 -0.12401005 119.5931 -800 0 -23.038478 -118.76953 -800 0 
	-800 0 -0.13606476 125.27091 -800 0 -20.120631 64.922297 
	-23.038478 -118.76953 -800 0 -0.024919519 -176.75842 -800 0 
	-800 0 -20.120631 64.922297 -800 0 -0.044872251 -175.32331 
1.61 -0.1250458 119.14425 -800 0 -23.073424 -119.00709 -800 0 
	-800 0 -0.13638873 124.85411 -800 0 -20.161296 64.695255 
	-23.073424 -119.00709 -800 0 -0.024776909 -176.78118 -800 0 
	-800 0 -20.161296 64.695255 -800 0 -0.044485372 -175.35766 
1.62 -0.12600376 118.69494 -800 0 -23.107898 -119.24475 -800 0 
	-800 0 -0.13666773 124.43716 -800 0 -20.20154 64.468383 
	-23.107898 -119.24475 -800 0 -0.024633202 -176.80366 -800 0 
	-800 0 -20.20154 64.468383 -800 0 -0.044102745 -175.39162 
1.63 -0.12688352 118.24516 -800 0 -23.141907 -119.48252 -800 0 
	-800 0 -0.1369014 124.02005 -800 0 -20.241369 64.241674 
	-23.141907 -119.48252 -800 0 -0.024488476 -176.82586 -800 0 
	-800 0 -20.241369 64.241674 -800 0 -0.043724294 -175.4252 
1.64 -0.12768462 117.7949 -800 0 -23.175456 -119.72039 -800 0 
	-800 0 -0.1370894 123.60276 -800 0 -20.280787 64.015124 
	-23.175456 -119.72039 -800 0 -0.024342802 -176.84779 -800 0 
	-800 0 -20.280787 64.015124 -800 0 -0.04334994 -175.4584 
1.65 -0.12840665 117.34414 -800 0 -23.208549 -119.95836 -800 0 
	-800 0 -0.13723139 123.18527 -800 0 -20.319799 63.788727 
	-23.208549 -119.95836 -800 0 -0.024196252 -176.86946 -800 0 
	-800 0 -20.319799 63.788727 -800 0 -0.042979608 -175.49124 
1.66 -0.12904916 116.89288 -800 0 -23.241191 -120.19643 -800 0 
	-800 0 -0.13732702 122.76758 -800 0 -20.358409 63.562476 
	-23.241191 -120.19643 -800 0 -0.024048891 -176.89087 -800 0 
	-800 0 -20.358409 63.562476 -800 0 -0.042613225 -175.52372 
1.67 -0.12961173 116.4411 -800 0 -23.273387 -120.43461 -800 0 
	-800 0 -0.13737595 122.34966 -800 0 -20.39662 63.336368 
	-23.273387 -120.43461 -800 0 -0.023900784 -176.91202 -800 0 
	-800 0 -20.39662 63.336368 -800 0 -0.042250719 -175.55585 
1.68 -0.13009394 115.98879 -800 0 -23.305143 -120.67288 -800 0 
	-800 0 -0.13737786 121.93151 -800 0 -20.434438 63.110397 
	-23.305143 -120.67288 -800 0 -0.023751991 -176.93292 -800 0 
	-800 0 -20.434438 63.110397 -800 0 -0.04189202 -175.58762 
1.69 -0.13049534 115.53595 -800 0 -23.336463 -120.91126 -800 0 
	-800 0 -0.13733242 121.51312 -800 0 -20.471867 62.884557 
	-23.336463 -120.91126 -800 0 -0.023602571 -176.95357 -800 0 
	-800 0 -20.471867 62.884557 -800 0 -0.041537058 -175.61906 
1.7 -0.13081551 115.08256 -800 0 -23.367351 -121.14973 -800 0 
	-800 0 -0.13723931 121.09446 -800 0 -20.50891 62.658845 
	-23.367351 -121.14973 -800 0 -0.02345258 -176.97398 -800 0 
	-800 0 -20.50891 62.658845 -800 0 -0.041185766 -175.65016 
1.71 -0.1319966 114.62554 -800 0 -23.397844 -121.39005 -800 0 
	-800 0 -0.13766975 120.6742 -800 0 -20.54551 62.431654 
	-23.397844 -121.39005 -800 0 -0.023342592 -176.9943 -800 0 
	-800 0 -20.54551 62.431654 -800 0 -0.040868949 -175.68093 
1.72 -0.13309499 114.1679 -800 0 -23.427908 -121.63053 -800 0 
	-800 0 -0.13805201 120.25363 -800 0 -20.581732 62.204552 
	-23.427908 -121.63053 -800 0 -0.023231162 -177.01439 -800 0 
	-800 0 -20.581732 62.204552 -800 0 -0.040555057 -175.71137 
1.73 -0.13411023 113.70963 -800 0 -23.457548 -121.87115 -800 0 
	-800 0 -0.13838575 119.83274 -800 0 -20.617579 61.977533 
	-23.457548 -121.87115 -800 0 -0.023118366 -177.03425 -800 0 
	-800 0 -20.617579 61.977533 -800 0 -0.040244043 -175.74149 
1.74 -0.13504183 113.25072 -800 0 -23.48677 -122.11192 -800 0 
	-800 0 -0.13867068 119.41151 -800 0 -20.653056 61.750594 
	-23.48677 -122.11192 -800 0 -0.023004275 -177.05387 -800 0 
	-800 0 -20.653056 61.750594 -800 0 -0.039935858 -175.7713 
1.75 -0.13588933 112.79116 -800 0 -23.515577 -122.35284 -800 0 
	-800 0 -0.13890646 118.98993 -800 0 -20.688165 61.523731 
	-23.515577 -122.35284 -800 0 -0.022888958 -177.07328 -800 0 
	-800 0 -20.688165 61.523731 -800 0 -0.039630455 -175.8008 
1.76 -0.13665225 112.33095 -800 0 -23.543975 -122.59391 -800 0 
	-800 0 -0.13909278 118.568 -800 0 -20.722912 61.296939 
	-23.543975 -122.59391 -800 0 -0.022772483 -177.09246 -800 0 
	-800 0 -20.722912 61.296939 -800 0 -0.039327789 -175.83 
1.77 -0.13733011 111.87007 -800 0 -23.571967 -122.83512 -800 0 
	-800 0 -0.13922935 118.14569 -800 0 -20.757299 61.070216 
	-23.571967 -122.83512 -800 0 -0.022654912 -177.11143 -800 0 
	-800 0 -20.757299 61.070216 -800 0 -0.039027814 -175.85891 
1.78 -0.13792246 111.40852 -800 0 -23.599559 -123.07647 -800 0 
	-800 0 -0.13931585 117.723 -800 0 -20.791331 60.843557 
	-23.599559 -123.07647 -800 0 -0.022536307 -177.13018 -800 0 
	-800 0 -20.791331 60.843557 -800 0 -0.038730486 -175.88752 
1.79 -0.13842883 110.94628 -800 0 -23.626753 -123.31796 -800 0 
	-800 0 -0.13935198 117.29992 -800 0 -20.825012 60.616959 
	-23.626753 -123.31796 -800 0 -0.022416726 -177.14873 -800 0 
	-800 0 -20.825012 60.616959 -800 0 -0.03843576 -175.91584 
1.8 -0.13884874 110.48336 -800 0 -23.653556 -123.55959 -800 0 
	-800 0 -0.13933745 116.87643 -800 0 -20.858345 60.390419 
	-23.653556 -123.55959 -800 0 -0.022296227 -177.16707 -800 0 
	-800 0 -20.858345 60.390419 -800 0 -0.038143595 -175.94388 
1.81 -0.1401603 110.01636 -800 0 -23.679985 -123.80375 -800 0 
	-800 0 -0.13986432 116.45109 -800 0 -20.891276 60.161995 
	-23.679985 -123.80375 -800 0 -0.022212258 -177.18535 -800 0 
	-800 0 -20.891276 60.161995 -800 0 -0.03788228 -175.97164 
1.82 -0.14138391 109.54861 -800 0 -23.706024 -124.0481 -800 0 
	-800 0 -0.14034016 116.02531 -800 0 -20.923865 59.933594 
	-23.706024 -124.0481 -800 0 -0.022126624 -177.20343 -800 0 
	-800 0 -20.923865 59.933594 -800 0 -0.03762292 -175.99912 
1.83 -0.14251905 109.08008 -800 0 -23.731677 -124.29262 -800 0 
	-800 0 -0.14076467 115.59906 -800 0 -20.956115 59.705216 
	-23.731677 -124.29262 -800 0 -0.022039397 -177.22131 -800 0 
	-800 0 -20.956115 59.705216 -800 0 -0.037365485 -176.02634 
1.84 -0.14356518 108.61079 -800 0 -23.756949 -124.53733 -800 0 
	-800 0 -0.14113754 115.17234 -800 0 -20.988031 59.476856 
	-23.756949 -124.53733 -800 0 -0.021950646 -177.239 -800 0 
	-800 0 -20.988031 59.476856 -800 0 -0.037109947 -176.05329 
1.85 -0.14452179 108.14071 -800 0 -23.781844 -124.78221 -800 0 
	-800 0 -0.14145849 114.74514 -800 0 -21.019616 59.248514 
	-23.781844 -124.78221 -800 0 -0.021860438 -177.25649 -800 0 
	-800 0 -21.019616 59.248514 -800 0 -0.036856278 -176.07998 
1.86 -0.14538836 107.66985 -800 0 -23.806365 -125.02726 -800 0 
	-800 0 -0.14172721 114.31746 -800 0 -21.050873 59.020186 
	-23.806365 -125.02726 -800 0 -0.021768836 -177.2738 -800 0 
	-800 0 -21.050873 59.020186 -800 0 -0.03660445 -176.10642 
1.87 -0.14616436 107.1982 -800 0 -23.830518 -125.27249 -800 0 
	-800 0 -0.14194341 113.88929 -800 0 -21.081806 58.791871 
	-23.830518 -125.27249 -800 0 -0.021675904 -177.29092 -800 0 
	-800 0 -21.081806 58.791871 -800 0 -0.036354435 -176.1326 
1.88 -0.14684928 106.72575 -800 0 -23.854306 -125.51788 -800 0 
	-800 0 -0.14210682 113.46061 -800 0 -21.112418 58.563566 
	-23.854306 -125.51788 -800 0 -0.021581701 -177.30787 -800 0 
	-800 0 -21.112418 58.563566 -800 0 -0.036106206 -176.15854 
1.89 -0.1474426 106.25251 -800 0 -23.877733 -125.76344 -800 0 
	-800 0 -0.14221714 113.03141 -800 0 -21.142713 58.335269 
	-23.877733 -125.76344 -800 0 -0.021486283 -177.32463 -800 0 
	-800 0 -21.142713 58.335269 -800 0 -0.035859737 -176.18423 
1.9 -0.14794381 105.77847 -800 0 -23.900803 -126.00916 -800 0 
	-800 0 -0.14227409 112.60171 -800 0 -21.172694 58.106979 
	-23.900803 -126.00916 -800 0 -0.021389706 -177.34122 -800 0 
	-800 0 -21.172694 58.106979 -800 0 -0.035615001 -176.20969 
1.91 -0.1493745 105.29987 -800 0 -23.923524 -126.25811 -800 0 
	-800 0 -0.14289315 112.1699 -800 0 -21.202312 57.876417 
	-23.923524 -126.25811 -800 0 -0.021326711 -177.35776 -800 0 
	-800 0 -21.202312 57.876417 -800 0 -0.035398112 -176.2349 
1.92 -0.15071145 104.82041 -800 0 -23.945889 -126.50727 -800 0 
	-800 0 -0.14345858 111.73753 -800 0 -21.231621 57.645834 
	-23.945889 -126.50727 -800 0 -0.021261911 -177.37414 -800 0 
	-800 0 -21.231621 57.645834 -800 0 -0.035182457 -176.25987 
1.93 -0.15195407 104.34006 -800 0 -23.967903 -126.75662 -800 0 
	-800 0 -0.14397008 111.3046 -800 0 -21.260625 57.415229 
	-23.967903 -126.75662 -800 0 -0.021195373 -177.39034 -800 0 
	-800 0 -21.260625 57.415229 -800 0 -0.034968021 -176.28462 
1.94 -0.15310178 103.85883 -800 0 -23.989569 -127.00616 -800 0 
	-800 0 -0.14442735 110.87108 -800 0 -21.289327 57.1846 
	-23.989569 -127.00616 -800 0 -0.021127163 -177.40638 -800 0 
	-800 0 -21.289327 57.1846 -800 0 -0.034754787 -176.30914 
1.95 -0.15415399 103.37673 -800 0 -24.010892 -127.25589 -800 0 
	-800 0 -0.14483011 110.43699 -800 0 -21.31773 56.953947 
	-24.010892 -127.25589 -800 0 -0.021057344 -177.42225 -800 0 
	-800 0 -21.31773 56.953947 -800 0 -0.03454274 -176.33345 
1.96 -0.15511012 102.89373 -800 0 -24.031875 -127.5058 -800 0 
	-800 0 -0.14517808 110.00231 -800 0 -21.345837 56.723269 
	-24.031875 -127.5058 -800 0 -0.020985978 -177.43796 -800 0 
	-800 0 -21.345837 56.723269 -800 0 -0.034331863 -176.35753 
1.97 -0.1559696 102.40985 -800 0 -24.052523 -127.7559 -800 0 
	-800 0 -0.14547097 109.56704 -800 0 -21.373653 56.492565 
	-24.052523 -127.7559 -800 0 -0.020913123 -177.45352 -800 0 
	-800 0 -21.373653 56.492565 -800 0 -0.034122142 -176.3814 
1.98 -0.15673185 101.92509 -800 0 -24.072839 -128.00617 -800 0 
	-800 0 -0.14570851 109.13118 -800 0 -21.401179 56.261836 
	-24.072839 -128.00617 -800 0 -0.020838837 -177.46891 -800 0 
	-800 0 -21.401179 56.261836 -800 0 -0.033913561 -176.40506 
1.99 -0.15739629 101.43943 -800 0 -24.092826 -128.25661 -800 0 
	-800 0 -0.14589042 108.69471 -800 0 -21.42842 56.03108 
	-24.092826 -128.25661 -800 0 -0.020763174 -177.48415 -800 0 
	-800 0 -21.42842 56.03108 -800 0 -0.033706104 -176.42851 
2 -0.15796237 100.95289 -800 0 -24.112489 -128.50722 -800 0 
	-800 0 -0.14601643 108.25763 -800 0 -21.455378 55.800297 
	-24.112489 -128.50722 -800 0 -0.020686189 -177.49925 -800 0 
	-800 0 -21.455378 55.800297 -800 0 -0.033499757 -176.45175 
2.01 -0.15948492 100.4609 -800 0 -24.131818 -128.76235 -800 0 
	-800 0 -0.14672765 107.81823 -800 0 -21.48201 55.566872 
	-24.131818 -128.76235 -800 0 -0.020640346 -177.51431 -800 0 
	-800 0 -21.48201 55.566872 -800 0 -0.033318714 -176.47478 
2.02 -0.160907 99.967946 -800 0 -24.150822 -129.01768 -800 0 
	-800 0 -0.14738273 107.37817 -800 0 -21.508363 55.333398 
	-24.150822 -129.01768 -800 0 -0.020592615 -177.52922 -800 0 
	-800 0 -21.508363 55.333398 -800 0 -0.033138365 -176.49761 
2.03 -0.16222793 99.474036 -800 0 -24.169506 -129.27319 -800 0 
	-800 0 -0.14798139 106.93747 -800 0 -21.534442 55.099875 
	-24.169506 -129.27319 -800 0 -0.020543058 -177.54398 -800 0 
	-800 0 -21.534442 55.099875 -800 0 -0.032958703 -176.52025 
2.04 -0.16344706 98.979168 -800 0 -24.187874 -129.5289 -800 0 
	-800 0 -0.14852333 106.49611 -800 0 -21.560248 54.866304 
	-24.187874 -129.5289 -800 0 -0.020491738 -177.55861 -800 0 
	-800 0 -21.560248 54.866304 -800 0 -0.032779722 -176.5427 
2.05 -0.16456373 98.483341 -800 0 -24.205928 -129.78478 -800 0 
	-800 0 -0.14900827 106.0541 -800 0 -21.585785 54.632685 
	-24.205928 -129.78478 -800 0 -0.020438714 -177.57308 -800 0 
	-800 0 -21.585785 54.632685 -800 0 -0.032601413 -176.56495 
2.06 -0.16557729 97.986558 -800 0 -24.223673 -130.04085 -800 0 
	-800 0 -0.14943593 105.61143 -800 0 -21.611056 54.39902 
	-24.223673 -130.04085 -800 0 -0.020384043 -177.58742 -800 0 
	-800 0 -21.611056 54.39902 -800 0 -0.03242377 -176.58702 
2.07 -0.1664871 97.488821 -800 0 -24.241113 -130.29708 -800 0 
	-800 0 -0.14980603 105.16811 -800 0 -21.636065 54.165309 
	-24.241113 -130.29708 -800 0 -0.020327781 -177.60162 -800 0 
	-800 0 -21.636065 54.165309 -800 0 -0.032246784 -176.6089 
2.08 -0.16729252 96.990132 -800 0 -24.25825 -130.55347 -800 0 
	-800 0 -0.1501183 104.72411 -800 0 -21.660813 53.931553 
	-24.25825 -130.55347 -800 0 -0.020269984 -177.61569 -800 0 
	-800 0 -21.660813 53.931553 -800 0 -0.032070449 -176.6306 
2.09 -0.16799291 96.490494 -800 0 -24.275089 -130.81003 -800 0 
	-800 0 -0.15037246 104.27946 -800 0 -21.685305 53.697753 
	-24.275089 -130.81003 -800 0 -0.020210702 -177.62962 -800 0 
	-800 0 -21.685305 53.697753 -800 0 -0.031894756 -176.65212 
2.1 -0.16858764 95.98991 -800 0 -24.291632 -131.06674 -800 0 
	-800 0 -0.15056825 103.83414 -800 0 -21.709542 53.463912 
	-24.291632 -131.06674 -800 0 -0.020149986 -177.64342 -800 0 
	-800 0 -21.709542 53.463912 -800 0 -0.031719699 -176.67346 
2.11 -0.17017297 95.483007 -800 0 -24.307888 -131.32938 -800 0 
	-800 0 -0.15137428 103.38625 -800 0 -21.73349 53.227071 
	-24.307888 -131.32938 -800 0 -0.020116923 -177.65722 -800 0 
	-800 0 -21.73349 53.227071 -800 0 -0.03156775 -176.69462 
2.12 -0.17164996 94.975088 -800 0 -24.323848 -131.59219 -800 0 
	-800 0 -0.15212167 102.93767 -800 0 -21.757188 52.990171 
	-24.323848 -131.59219 -800 0 -0.020081949 -177.67088 -800 0 
	-800 0 -21.757188 52.990171 -800 0 -0.031416089 -176.7156 
2.13 -0.17301787 94.466158 -800 0 -24.339515 -131.85517 -800 0 
	-800 0 -0.15281013 102.48838 -800 0 -21.780638 52.753212 
	-24.339515 -131.85517 -800 0 -0.020045121 -177.68442 -800 0 
	-800 0 -21.780638 52.753212 -800 0 -0.031264714 -176.73642 
2.14 -0.17427594 93.956221 -800 0 -24.354893 -132.11831 -800 0 
	-800 0 -0.15343936 102.03839 -800 0 -21.803843 52.516199 
	-24.354893 -132.11831 -800 0 -0.020006499 -177.69783 -800 0 
	-800 0 -21.803843 52.516199 -800 0 -0.031113625 -176.75707 
2.15 -0.17542345 93.445283 -800 0 -24.369984 -132.3816 -800 0 
	-800 0 -0.15400908 101.5877 -800 0 -21.826807 52.279132 
	-24.369984 -132.3816 -800 0 -0.019966136 -177.71111 -800 0 
	-800 0 -21.826807 52.279132 -800 0 -0.03096282 -176.77756 
2.16 -0.17645967 92.933349 -800 0 -24.384794 -132.64504 -800 0 
	-800 0 -0.154519 101.13632 -800 0 -21.849531 52.042014 
	-24.384794 -132.64504 -800 0 -0.019924088 -177.72428 -800 0 
	-800 0 -21.849531 52.042014 -800 0 -0.030812296 -176.79788 
2.17 -0.17738389 92.420424 -800 0 -24.399324 -132.90862 -800 0 
	-800 0 -0.15496883 100.68423 -800 0 -21.87202 51.804849 
	-24.399324 -132.90862 -800 0 -0.019880406 -177.73732 -800 0 
	-800 0 -21.87202 51.804849 -800 0 -0.030662052 -176.81805 
2.18 -0.17819538 91.906516 -800 0 -24.413578 -133.17234 -800 0 
	-800 0 -0.15535831 100.23145 -800 0 -21.894275 51.567638 
	-24.413578 -133.17234 -800 0 -0.01983514 -177.75024 -800 0 
	-800 0 -21.894275 51.567638 -800 0 -0.030512086 -176.83805 
2.19 -0.17889344 91.391631 -800 0 -24.42756 -133.43618 -800 0 
	-800 0 -0.15568715 99.777974 -800 0 -21.9163 51.330384 
	-24.42756 -133.43618 -800 0 -0.019788341 -177.76305 -800 0 
	-800 0 -21.9163 51.330384 -800 0 -0.030362396 -176.8579 
2.2 -0.17947738 90.875776 -800 0 -24.441273 -133.70014 -800 0 
	-800 0 -0.15595509 99.323803 -800 0 -21.938096 51.09309 
	-24.441273 -133.70014 -800 0 -0.019740056 -177.77574 -800 0 
	-800 0 -21.938096 51.09309 -800 0 -0.030212979 -176.8776 
2.21 -0.18111913 90.353209 -800 0 -24.454761 -133.97077 -800 0 
	-800 0 -0.15683184 98.866111 -800 0 -21.959611 50.851969 
	-24.454761 -133.97077 -800 0 -0.019716317 -177.78845 -800 0 
	-800 0 -21.959611 50.851969 -800 0 -0.030085461 -176.89714 
2.22 -0.1826437 89.829604 -800 0 -24.467977 -134.24153 -800 0 
	-800 0 -0.15764674 98.407695 -800 0 -21.9809 50.610795 
	-24.467977 -134.24153 -800 0 -0.019690685 -177.80104 -800 0 
	-800 0 -21.9809 50.610795 -800 0 -0.029957909 -176.91653 
2.23 -0.18405026 89.304968 -800 0 -24.480926 -134.51241 -800 0 
	-800 0 -0.15839948 97.948558 -800 0 -22.001966 50.369574 
	-24.480926 -134.51241 -800 0 -0.019663214 -177.81352 -800 0 
	-800 0 -22.001966 50.369574 -800 0 -0.029830326 -176.93578 
2.24 -0.185338 88.779312 -800 0 -24.493609 -134.78341 -800 0 
	-800 0 -0.15908977 97.488703 -800 0 -22.022812 50.128307 
	-24.493609 -134.78341 -800 0 -0.019633956 -177.82589 -800 0 
	-800 0 -22.022812 50.128307 -800 0 -0.029702716 -176.95488 
2.25 -0.18650608 88.252644 -800 0 -24.50603 -135.05452 -800 0 
	-800 0 -0.1597173 97.028133 -800 0 -22.04344 49.887001 
	-24.50603 -135.05452 -800 0 -0.019602965 -177.83815 -800 0 
	-800 0 -22.04344 49.887001 -800 0 -0.02957508 -176.97383 
2.26 -0.18755371 87.724973 -800 0 -24.518193 -135.32573 -800 0 
	-800 0 -0.16028178 96.566852 -800 0 -22.063854 49.645657 
	-24.518193 -135.32573 -800 0 -0.019570289 -177.8503 -800 0 
	-800 0 -22.063854 49.645657 -800 0 -0.02944742 -176.99265 
2.27 -0.18848009 87.19631 -800 0 -24.530101 -135.59702 -800 0 
	-800 0 -0.16078291 96.104864 -800 0 -22.084055 49.404281 
	-24.530101 -135.59702 -800 0 -0.019535978 -177.86235 -800 0 
	-800 0 -22.084055 49.404281 -800 0 -0.02931974 -177.01133 
2.28 -0.18928442 86.666666 -800 0 -24.541756 -135.86841 -800 0 
	-800 0 -0.16122039 95.642174 -800 0 -22.104046 49.162877 
	-24.541756 -135.86841 -800 0 -0.019500078 -177.87429 -800 0 
	-800 0 -22.104046 49.162877 -800 0 -0.029192041 -177.02986 
2.29 -0.18996594 86.136051 -800 0 -24.553162 -136.13986 -800 0 
	-800 0 -0.16159395 95.178786 -800 0 -22.12383 48.921449 
	-24.553162 -136.13986 -800 0 -0.019462636 -177.88612 -800 0 
	-800 0 -22.12383 48.921449 -800 0 -0.029064324 -177.04827 
2.3 -0.19052387 85.604476 -800 0 -24.564322 -136.41139 -800 0 
	-800 0 -0.16190331 94.714706 -800 0 -22.14341 48.680002 
	-24.564322 -136.41139 -800 0 -0.019423696 -177.89786 -800 0 
	-800 0 -22.14341 48.680002 -800 0 -0.028936592 -177.06653 
2.31 -0.19222302 85.065866 -800 0 -24.575298 -136.69006 -800 0 
	-800 0 -0.16282512 94.246385 -800 0 -22.162722 48.434077 
	-24.575298 -136.69006 -800 0 -0.0194078 -177.90961 -800 0 
	-800 0 -22.162722 48.434077 -800 0 -0.028829281 -177.08467 
2.32 -0.1937951 84.526228 -800 0 -24.586025 -136.9688 -800 0 
	-800 0 -0.16368116 93.777346 -800 0 -22.181831 48.188126 
	-24.586025 -136.9688 -800 0 -0.01939004 -177.92127 -800 0 
	-800 0 -22.181831 48.188126 -800 0 -0.02872169 -177.10267 
2.33 -0.19523919 83.985575 -800 0 -24.596506 -137.24761 -800 0 
	-800 0 -0.16447112 93.307595 -800 0 -22.200739 47.942155 
	-24.596506 -137.24761 -800 0 -0.019370467 -177.93282 -800 0 
	-800 0 -22.200739 47.942155 -800 0 -0.028613823 -177.12055 
2.34 -0.19655438 83.443919 -800 0 -24.606743 -137.52647 -800 0 
	-800 0 -0.16519467 92.837138 -800 0 -22.219449 47.696167 
	-24.606743 -137.52647 -800 0 -0.01934913 -177.94428 -800 0 
	-800 0 -22.219449 47.696167 -800 0 -0.028505687 -177.13829 
2.35 -0.19773978 82.901275 -800 0 -24.616741 -137.80537 -800 0 
	-800 0 -0.16585149 92.365982 -800 0 -22.237962 47.450169 
	-24.616741 -137.80537 -800 0 -0.019326077 -177.95563 -800 0 
	-800 0 -22.237962 47.450169 -800 0 -0.028397288 -177.15592 
2.36 -0.19879448 82.357655 -800 0 -24.6265 -138.08432 -800 0 
	-800 0 -0.16644126 91.894134 -800 0 -22.256281 47.204167 
	-24.6265 -138.08432 -800 0 -0.019301356 -177.9669 -800 0 
	-800 0 -22.256281 47.204167 -800 0 -0.028288629 -177.17342 
2.37 -0.19971762 81.813075 -800 0 -24.636026 -138.36328 -800 0 
	-800 0 -0.16696366 91.421601 -800 0 -22.274409 46.958165 
	-24.636026 -138.36328 -800 0 -0.019275011 -177.97807 -800 0 
	-800 0 -22.274409 46.958165 -800 0 -0.028179718 -177.19079 
2.38 -0.20050832 81.267547 -800 0 -24.645319 -138.64226 -800 0 
	-800 0 -0.16741839 90.94839 -800 0 -22.292349 46.71217 
	-24.645319 -138.64226 -800 0 -0.019247087 -177.98914 -800 0 
	-800 0 -22.292349 46.71217 -800 0 -0.028070557 -177.20805 
2.39 -0.20116574 80.721089 -800 0 -24.654384 -138.92125 -800 0 
	-800 0 -0.16780514 90.474511 -800 0 -22.310101 46.466187 
	-24.654384 -138.92125 -800 0 -0.019217626 -178.00012 -800 0 
	-800 0 -22.310101 46.466187 -800 0 -0.027961153 -177.22519 
2.4 -0.20168903 80.173714 -800 0 -24.663223 -139.20024 -800 0 
	-800 0 -0.16812361 89.99997 -800 0 -22.327669 46.220222 
	-24.663223 -139.20024 -800 0 -0.019186672 -178.01102 -800 0 
	-800 0 -22.327669 46.220222 -800 0 -0.027851509 -177.24221 
2.41 -0.20345226 79.619029 -800 0 -24.671928 -139.48679 -800 0 
	-800 0 -0.16910811 89.521554 -800 0 -22.345041 45.969869 
	-24.671928 -139.48679 -800 0 -0.019177438 -178.02193 -800 0 
	-800 0 -22.345041 45.969869 -800 0 -0.027759886 -177.2591 
2.42 -0.20507739 79.063359 -800 0 -24.680404 -139.77334 -800 0 
	-800 0 -0.17002298 89.042456 -800 0 -22.362229 45.71953 
	-24.680404 -139.77334 -800 0 -0.019166379 -178.03276 -800 0 
	-800 0 -22.362229 45.71953 -800 0 -0.027667815 -177.27588 
2.43 -0.20656341 78.50672 -800 0 -24.688653 -140.05987 -800 0 
	-800 0 -0.17086786 88.562685 -800 0 -22.379236 45.469213 
	-24.688653 -140.05987 -800 0 -0.019153543 -178.0435 -800 0 
	-800 0 -22.379236 45.469213 -800 0 -0.027575305 -177.29254 
2.44 -0.20790931 77.949129 -800 0 -24.696677 -140.34639 -800 0 
	-800 0 -0.17164239 88.082251 -800 0 -22.396064 45.218925 
	-24.696677 -140.34639 -800 0 -0.019138975 -178.05415 -800 0 
	-800 0 -22.396064 45.218925 -800 0 -0.027482362 -177.30909 
2.45 -0.20911409 77.390604 -800 0 -24.70448 -140.63287 -800 0 
	-800 0 -0.17234624 87.601163 -800 0 -22.412716 44.968671 
	-24.70448 -140.63287 -800 0 -0.01912272 -178.06471 -800 0 
	-800 0 -22.412716 44.968671 -800 0 -0.027388994 -177.32554 
2.46 -0.2101768 76.831162 -800 0 -24.712063 -140.9193 -800 0 
	-800 0 -0.17297904 87.119431 -800 0 -22.429192 44.71846 
	-24.712063 -140.9193 -800 0 -0.019104823 -178.07519 -800 0 
	-800 0 -22.429192 44.71846 -800 0 -0.027295207 -177.34187 
2.47 -0.21109645 76.270821 -800 0 -24.719429 -141.20568 -800 0 
	-800 0 -0.17354045 86.637066 -800 0 -22.445496 44.468297 
	-24.719429 -141.20568 -800 0 -0.019085325 -178.08558 -800 0 
	-800 0 -22.445496 44.468297 -800 0 -0.027201009 -177.3581 
2.48 -0.21187211 75.7096 -800 0 -24.726582 -141.49199 -800 0 
	-800 0 -0.17403015 86.154077 -800 0 -22.461629 44.218191 
	-24.726582 -141.49199 -800 0 -0.019064269 -178.09589 -800 0 
	-800 0 -22.461629 44.218191 -800 0 -0.027106406 -177.37422 
2.49 -0.21250285 75.147517 -800 0 -24.733523 -141.77823 -800 0 
	-800 0 -0.17444778 85.670477 -800 0 -22.477595 43.968147 
	-24.733523 -141.77823 -800 0 -0.019041695 -178.10612 -800 0 
	-800 0 -22.477595 43.968147 -800 0 -0.027011405 -177.39024 
2.5 -0.21298776 74.584592 -800 0 -24.740254 -142.06438 -800 0 
	-800 0 -0.17479302 85.186276 -800 0 -22.493393 43.718173 
	-24.740254 -142.06438 -800 0 -0.019017642 -178.11627 -800 0 
	-800 0 -22.493393 43.718173 -800 0 -0.026916012 -177.40615 
2.51 -0.21482618 74.014106 -800 0 -24.746913 -142.35848 -800 0 
	-800 0 -0.17587908 84.698587 -800 0 -22.509084 43.463925 
	-24.746913 -142.35848 -800 0 -0.019014141 -178.12645 -800 0 
	-800 0 -22.509084 43.463925 -800 0 -0.026836432 -177.42194 
2.52 -0.21651421 73.442706 -800 0 -24.753358 -142.65249 -800 0 
	-800 0 -0.17689157 84.210279 -800 0 -22.52461 43.209747 
	-24.753358 -142.65249 -800 0 -0.019008862 -178.13654 -800 0 
	-800 0 -22.52461 43.209747 -800 0 -0.026756302 -177.43763 
2.53 -0.21805072 72.870413 -800 0 -24.759591 -142.94641 -800 0 
	-800 0 -0.1778301 83.721364 -800 0 -22.539971 42.955646 
	-24.759591 -142.94641 -800 0 -0.019001848 -178.14655 -800 0 
	-800 0 -22.539971 42.955646 -800 0 -0.02667563 -177.45322 
2.54 -0.21943461 72.297246 -800 0 -24.765615 -143.2402 -800 0 
	-800 0 -0.17869428 83.231855 -800 0 -22.555171 42.701629 
	-24.765615 -143.2402 -800 0 -0.018993143 -178.15649 -800 0 
	-800 0 -22.555171 42.701629 -800 0 -0.026594425 -177.46871 
2.55 -0.22066479 71.723227 -800 0 -24.771432 -143.53388 -800 0 
	-800 0 -0.17948371 82.741763 -800 0 -22.570211 42.447704 
	-24.771432 -143.53388 -800 0 -0.01898279 -178.16635 -800 0 
	-800 0 -22.570211 42.447704 -800 0 -0.026512694 -177.4841 
2.56 -0.22174019 71.148376 -800 0 -24.777045 -143.82741 -800 0 
	-800 0 -0.180198 82.251102 -800 0 -22.585093 42.19388 
	-24.777045 -143.82741 -800 0 -0.018970829 -178.17613 -800 0 
	-800 0 -22.585093 42.19388 -800 0 -0.026430446 -177.4994 
2.57 -0.22265975 70.572716 -800 0 -24.782456 -144.1208 -800 0 
	-800 0 -0.18083677 81.759884 -800 0 -22.599818 41.940163 
	-24.782456 -144.1208 -800 0 -0.018957301 -178.18584 -800 0 
	-800 0 -22.599818 41.940163 -800 0 -0.026347688 -177.5146 
2.58 -0.22342246 69.996268 -800 0 -24.787667 -144.41403 -800 0 
	-800 0 -0.18139962 81.268122 -800 0 -22.61439 41.686563 
	-24.787667 -144.41403 -800 0 -0.018942245 -178.19547 -800 0 
	-800 0 -22.61439 41.686563 -800 0 -0.026264429 -177.52971 
2.59 -0.2240273 69.419054 -800 0 -24.79268 -144.70708 -800 0 
	-800 0 -0.18188618 80.77583 -800 0 -22.628808 41.433086 
	-24.79268 -144.70708 -800 0 -0.0189257 -178.20503 -800 0 
	-800 0 -22.628808 41.433086 -800 0 -0.026180676 -177.54473 
2.6 -0.22447328 68.841097 -800 0 -24.797498 -144.99996 -800 0 
	-800 0 -0.18229607 80.283021 -800 0 -22.643076 41.179742 
	-24.797498 -144.99996 -800 0 -0.018907702 -178.21452 -800 0 
	-800 0 -22.643076 41.179742 -800 0 -0.026096435 -177.55966 
2.61 -0.22640016 68.255324 -800 0 -24.80231 -145.30118 -800 0 
	-800 0 -0.18355605 79.78633 -800 0 -22.657335 40.921812 
	-24.80231 -145.30118 -800 0 -0.01890922 -178.22403 -800 0 
	-800 0 -22.657335 40.921812 -800 0 -0.026026265 -177.57446 
2.62 -0.22816289 67.668732 -800 0 -24.80692 -145.60221 -800 0 
	-800 0 -0.18473768 79.289103 -800 0 -22.671443 40.664015 
	-24.80692 -145.60221 -800 0 -0.018909013 -178.23347 -800 0 
	-800 0 -22.671443 40.664015 -800 0 -0.025955487 -177.58918 
2.63 -0.22976025 67.081343 -800 0 -24.811331 -145.90304 -800 0 
	-800 0 -0.1858405 78.791356 -800 0 -22.685401 40.406359 
	-24.811331 -145.90304 -800 0 -0.018907123 -178.24284 -800 0 
	-800 0 -22.685401 40.406359 -800 0 -0.02588411 -177.60381 
2.64 -0.23119102 66.493182 -800 0 -24.815545 -146.20366 -800 0 
	-800 0 -0.18686406 78.293102 -800 0 -22.699213 40.148852 
	-24.815545 -146.20366 -800 0 -0.01890359 -178.25214 -800 0 
	-800 0 -22.699213 40.148852 -800 0 -0.025812142 -177.61835 
2.65 -0.23245401 65.904271 -800 0 -24.819564 -146.50406 -800 0 
	-800 0 -0.18780789 77.794356 -800 0 -22.712878 39.891503 
	-24.819564 -146.50406 -800 0 -0.018898453 -178.26137 -800 0 
	-800 0 -22.712878 39.891503 -800 0 -0.025739593 -177.63281 
2.66 -0.23354805 65.314636 -800 0 -24.823389 -146.80422 -800 0 
	-800 0 -0.18867156 77.295133 -800 0 -22.726398 39.634321 
	-24.823389 -146.80422 -800 0 -0.018891753 -178.27053 -800 0 
	-800 0 -22.726398 39.634321 -800 0 -0.02566647 -177.64718 
2.67 -0.234472 64.724301 -800 0 -24.827023 -147.10413 -800 0 
	-800 0 -0.1894546 76.795447 -800 0 -22.739776 39.377313 
	-24.827023 -147.10413 -800 0 -0.018883527 -178.27963 -800 0 
	-800 0 -22.739776 39.377313 -800 0 -0.025592783 -177.66147 
2.68 -0.23522473 64.13329 -800 0 -24.830468 -147.40377 -800 0 
	-800 0 -0.19015657 76.295313 -800 0 -22.753013 39.120489 
	-24.830468 -147.40377 -800 0 -0.018873812 -178.28866 -800 0 
	-800 0 -22.753013 39.120489 -800 0 -0.025518539 -177.67568 
2.69 -0.23580516 63.541627 -800 0 -24.833725 -147.70315 -800 0 
	-800 0 -0.19077703 75.794746 -800 0 -22.76611 38.863856 
	-24.833725 -147.70315 -800 0 -0.018862645 -178.29762 -800 0 
	-800 0 -22.76611 38.863856 -800 0 -0.025443747 -177.6898 
2.7 -0.2362122 62.949338 -800 0 -24.836797 -148.00223 -800 0 
	-800 0 -0.19131555 75.293762 -800 0 -22.779069 38.607425 
	-24.836797 -148.00223 -800 0 -0.018850062 -178.30652 -800 0 
	-800 0 -22.779069 38.607425 -800 0 -0.025368415 -177.70385 
2.71 -0.2382398 62.348942 -800 0 -24.839936 -148.31011 -800 0 
	-800 0 -0.19263118 74.788435 -800 0 -22.791788 38.345289 
	-24.839936 -148.31011 -800 0 -0.018856077 -178.31544 -800 0 
	-800 0 -22.791788 38.345289 -800 0 -0.02530909 -177.71778 
2.72 -0.24008787 61.747836 -800 0 -24.842883 -148.61769 -800 0 
	-800 0 -0.19386242 74.282673 -800 0 -22.804367 38.083364 
	-24.842883 -148.61769 -800 0 -0.018860425 -178.3243 -800 0 
	-800 0 -22.804367 38.083364 -800 0 -0.025249096 -177.73163 
2.73 -0.24175505 61.146047 -800 0 -24.845638 -148.92496 -800 0 
	-800 0 -0.19500875 73.776493 -800 0 -22.816808 37.821657 
	-24.845638 -148.92496 -800 0 -0.018863147 -178.33309 -800 0 
	-800 0 -22.816808 37.821657 -800 0 -0.025188443 -177.7454 
2.74 -0.24324003 60.543599 -800 0 -24.848205 -149.23192 -800 0 
	-800 0 -0.19606962 73.269909 -800 0 -22.829112 37.560178 
	-24.848205 -149.23192 -800 0 -0.018864281 -178.34182 -800 0 
	-800 0 -22.829112 37.560178 -800 0 -0.02512714 -177.7591 
2.75 -0.2445415 59.940519 -800 0 -24.850583 -149.53854 -800 0 
	-800 0 -0.19704454 72.762938 -800 0 -22.841281 37.298935 
	-24.850583 -149.53854 -800 0 -0.018863865 -178.35049 -800 0 
	-800 0 -22.841281 37.298935 -800 0 -0.025065198 -177.77273 
2.76 -0.24565819 59.336832 -800 0 -24.852776 -149.84483 -800 0 
	-800 0 -0.19793298 72.255595 -800 0 -22.853314 37.037937 
	-24.852776 -149.84483 -800 0 -0.018861936 -178.3591 -800 0 
	-800 0 -22.853314 37.037937 -800 0 -0.025002624 -177.78627 
2.77 -0.24658887 58.732566 -800 0 -24.854784 -150.15076 -800 0 
	-800 0 -0.19873442 71.747897 -800 0 -22.865215 36.777194 
	-24.854784 -150.15076 -800 0 -0.01885853 -178.36764 -800 0 
	-800 0 -22.865215 36.777194 -800 0 -0.024939428 -177.79975 
2.78 -0.24733233 58.127746 -800 0 -24.85661 -150.45633 -800 0 
	-800 0 -0.19944837 71.23986 -800 0 -22.876984 36.516714 
	-24.85661 -150.45633 -800 0 -0.018853683 -178.37613 -800 0 
	-800 0 -22.876984 36.516714 -800 0 -0.024875618 -177.81315 
2.79 -0.24788738 57.522399 -800 0 -24.858254 -150.76152 -800 0 
	-800 0 -0.20007432 70.731499 -800 0 -22.888622 36.256505 
	-24.858254 -150.76152 -800 0 -0.01884743 -178.38456 -800 0 
	-800 0 -22.888622 36.256505 -800 0 -0.024811205 -177.82648 
2.8 -0.24825287 56.916551 -800 0 -24.859719 -151.06633 -800 0 
	-800 0 -0.20061178 70.222831 -800 0 -22.90013 35.996577 
	-24.859719 -151.06633 -800 0 -0.018839804 -178.39293 -800 0 
	-800 0 -22.90013 35.996577 -800 0 -0.024746195 -177.83973 
2.81 -0.25038919 56.30224 -800 0 -24.861331 -151.38041 -800 0 
	-800 0 -0.20180599 69.751169 -800 0 -22.91181 35.752305 
	-24.861331 -151.38041 -800 0 -0.01884996 -178.40132 -800 0 
	-800 0 -22.91181 35.752305 -800 0 -0.024693204 -177.85292 
2.82 -0.25232879 55.687334 -800 0 -24.862754 -151.6941 -800 0 
	-800 0 -0.20294236 69.279234 -800 0 -22.923372 35.508289 
	-24.862754 -151.6941 -800 0 -0.018858515 -178.40965 -800 0 
	-800 0 -22.923372 35.508289 -800 0 -0.024639541 -177.86603 
2.83 -0.25407019 55.071862 -800 0 -24.863991 -152.00738 -800 0 
	-800 0 -0.20402044 68.80704 -800 0 -22.934815 35.264537 
	-24.863991 -152.00738 -800 0 -0.018865506 -178.41793 -800 0 
	-800 0 -22.934815 35.264537 -800 0 -0.024585216 -177.87907 
2.84 -0.25561197 54.455849 -800 0 -24.865043 -152.32024 -800 0 
	-800 0 -0.20503977 68.334598 -800 0 -22.94614 35.021056 
	-24.865043 -152.32024 -800 0 -0.018870971 -178.42615 -800 0 
	-800 0 -22.94614 35.021056 -800 0 -0.024530238 -177.89204 
2.85 -0.25695274 53.839323 -800 0 -24.86591 -152.63267 -800 0 
	-800 0 -0.20599989 67.861922 -800 0 -22.957349 34.777854 
	-24.86591 -152.63267 -800 0 -0.018874945 -178.43431 -800 0 
	-800 0 -22.957349 34.777854 -800 0 -0.024474618 -177.90495 
2.86 -0.25809115 53.222311 -800 0 -24.866595 -152.94466 -800 0 
	-800 0 -0.20690035 67.389026 -800 0 -22.968443 34.534938 
	-24.866595 -152.94466 -800 0 -0.018877464 -178.44242 -800 0 
	-800 0 -22.968443 34.534938 -800 0 -0.024418365 -177.91779 
2.87 -0.25902586 52.604841 -800 0 -24.867098 -153.25619 -800 0 
	-800 0 -0.20774068 66.915921 -800 0 -22.979422 34.292314 
	-24.867098 -153.25619 -800 0 -0.018878563 -178.45047 -800 0 
	-800 0 -22.979422 34.292314 -800 0 -0.024361489 -177.93056 
2.88 -0.25975559 51.986939 -800 0 -24.867421 -153.56725 -800 0 
	-800 0 -0.20852045 66.442621 -800 0 -22.990286 34.049992 
	-24.867421 -153.56725 -800 0 -0.018878275 -178.45847 -800 0 
	-800 0 -22.990286 34.049992 -800 0 -0.024303997 -177.94327 
2.89 -0.2602791 51.368634 -800 0 -24.867566 -153.87783 -800 0 
	-800 0 -0.20923919 65.969138 -800 0 -23.001038 33.807976 
	-24.867566 -153.87783 -800 0 -0.018876634 -178.46642 -800 0 
	-800 0 -23.001038 33.807976 -800 0 -0.0242459 -177.95591 
2.9 -0.26059516 50.749951 -800 0 -24.867533 -154.18793 -800 0 
	-800 0 -0.20989645 65.495486 -800 0 -23.011678 33.566275 
	-24.867533 -154.18793 -800 0 -0.018873672 -178.47431 -800 0 
	-800 0 -23.011678 33.566275 -800 0 -0.024187207 -177.96849 
2.91 -0.26284143 50.12236 -800 0 -24.867731 -154.5079 -800 0 
	-800 0 -0.21126524 64.967161 -800 0 -23.022088 33.294518 
	-24.867731 -154.5079 -800 0 -0.018887762 -178.48223 -800 0 
	-800 0 -23.022088 33.294518 -800 0 -0.024143827 -177.98095 
2.92 -0.26487194 49.494285 -800 0 -24.867742 -154.82738 -800 0 
	-800 0 -0.21252662 64.43862 -800 0 -23.032369 33.023117 
	-24.867742 -154.82738 -800 0 -0.018900322 -178.49009 -800 0 
	-800 0 -23.032369 33.023117 -800 0 -0.024099733 -177.99336 
2.93 -0.26668514 48.865753 -800 0 -24.867566 -155.14635 -800 0 
	-800 0 -0.21367994 63.909882 -800 0 -23.042521 32.752081 
	-24.867566 -155.14635 -800 0 -0.018911387 -178.4979 -800 0 
	-800 0 -23.042521 32.752081 -800 0 -0.024054936 -178.0057 
2.94 -0.26827952 48.236792 -800 0 -24.867205 -155.4648 -800 0 
	-800 0 -0.21472461 63.380962 -800 0 -23.052546 32.481419 
	-24.867205 -155.4648 -800 0 -0.018920993 -178.50566 -800 0 
	-800 0 -23.052546 32.481419 -800 0 -0.024009445 -178.01798 
2.95 -0.26965361 47.607429 -800 0 -24.86666 -155.78273 -800 0 
	-800 0 -0.21566002 62.851879 -800 0 -23.062444 32.211138 
	-24.86666 -155.78273 -800 0 -0.018929174 -178.51337 -800 0 
	-800 0 -23.062444 32.211138 -800 0 -0.023963271 -178.0302 
2.96 -0.270806 46.977692 -800 0 -24.865931 -156.10011 -800 0 
	-800 0 -0.21648557 62.322648 -800 0 -23.072215 31.941249 
	-24.865931 -156.10011 -800 0 -0.018935963 -178.52102 -800 0 
	-800 0 -23.072215 31.941249 -800 0 -0.023916422 -178.04236 
2.97 -0.27173531 46.347608 -800 0 -24.86502 -156.41694 -800 0 
	-800 0 -0.21720071 61.793286 -800 0 -23.081861 31.671758 
	-24.86502 -156.41694 -800 0 -0.018941395 -178.52863 -800 0 
	-800 0 -23.081861 31.671758 -800 0 -0.023868909 -178.05447 
2.98 -0.2724402 45.717205 -800 0 -24.863928 -156.73322 -800 0 
	-800 0 -0.21780486 61.263811 -800 0 -23.091383 31.402675 
	-24.863928 -156.73322 -800 0 -0.018945501 -178.53619 -800 0 
	-800 0 -23.091383 31.402675 -800 0 -0.023820741 -178.06651 
2.99 -0.27291939 45.086509 -800 0 -24.862656 -157.04892 -800 0 
	-800 0 -0.21829748 60.734239 -800 0 -23.100781 31.134007 
	-24.862656 -157.04892 -800 0 -0.018948313 -178.54371 -800 0 
	-800 0 -23.100781 31.134007 -800 0 -0.023771927 -178.0785 
3 -0.27317164 44.455548 -800 0 -24.861205 -157.36405 -800 0 
	-800 0 -0.21867805 60.204586 -800 0 -23.110055 30.865763 
	-24.861205 -157.36405 -800 0 -0.018949864 -178.55117 -800 0 
	-800 0 -23.110055 30.865763 -800 0 -0.023722475 -178.09043 
3.01 -0.27548781 43.815382 -800 0 -24.860063 -157.68978 -800 0 
	-800 0 -0.2200933 59.6846 -800 0 -23.119351 30.598266 
	-24.860063 -157.68978 -800 0 -0.018967889 -178.55865 -800 0 
	-800 0 -23.119351 30.598266 -800 0 -0.023684638 -178.10229 
3.02 -0.27756795 43.174828 -800 0 -24.858731 -158.01493 -800 0 
	-800 0 -0.22140639 59.164509 -800 0 -23.128524 30.331188 
	-24.858731 -158.01493 -800 0 -0.018984459 -178.56608 -800 0 
	-800 0 -23.128524 30.331188 -800 0 -0.023646098 -178.1141 
3.03 -0.27941049 42.533914 -800 0 -24.857209 -158.33948 -800 0 
	-800 0 -0.22261672 58.644328 -800 0 -23.137572 30.064537 
	-24.857209 -158.33948 -800 0 -0.018999607 -178.57347 -800 0 
	-800 0 -23.137572 30.064537 -800 0 -0.023606865 -178.12585 
3.04 -0.28101387 41.892667 -800 0 -24.855498 -158.66343 -800 0 
	-800 0 -0.22372371 58.12407 -800 0 -23.146498 29.79832 
	-24.855498 -158.66343 -800 0 -0.019013368 -178.58081 -800 0 
	-800 0 -23.146498 29.79832 -800 0 -0.023566949 -178.13755 
3.05 -0.2823766 41.251114 -800 0 -24.853599 -158.98677 -800 0 
	-800 0 -0.22472679 57.603751 -800 0 -23.155301 29.532544 
	-24.853599 -158.98677 -800 0 -0.019025774 -178.58811 -800 0 
	-800 0 -23.155301 29.532544 -800 0 -0.02352636 -178.1492 
3.06 -0.28349723 40.609282 -800 0 -24.851513 -159.30948 -800 0 
	-800 0 -0.22562539 57.083385 -800 0 -23.163983 29.267216 
	-24.851513 -159.30948 -800 0 -0.019036858 -178.59536 -800 0 
	-800 0 -23.163983 29.267216 -800 0 -0.023485106 -178.16079 
3.07 -0.28437439 39.967196 -800 0 -24.849241 -159.63156 -800 0 
	-800 0 -0.22641899 56.562986 -800 0 -23.172543 29.002344 
	-24.849241 -159.63156 -800 0 -0.019046652 -178.60256 -800 0 
	-800 0 -23.172543 29.002344 -800 0 -0.023443197 -178.17233 
3.08 -0.28500674 39.324885 -800 0 -24.846784 -159.953 -800 0 
	-800 0 -0.22710705 56.042568 -800 0 -23.180982 28.737935 
	-24.846784 -159.953 -800 0 -0.019055186 -178.60972 -800 0 
	-800 0 -23.180982 28.737935 -800 0 -0.023400643 -178.18382 
3.09 -0.285393 38.682375 -800 0 -24.844142 -160.27379 -800 0 
	-800 0 -0.22768907 55.522146 -800 0 -23.189301 28.473995 
	-24.844142 -160.27379 -800 0 -0.019062492 -178.61684 -800 0 
	-800 0 -23.189301 28.473995 -800 0 -0.023357453 -178.19525 
3.1 -0.28553195 38.039691 -800 0 -24.841316 -160.59393 -800 0 
	-800 0 -0.22816457 55.001732 -800 0 -23.1975 28.210531 
	-24.841316 -160.59393 -800 0 -0.019068599 -178.62391 -800 0 
	-800 0 -23.1975 28.210531 -800 0 -0.023313635 -178.20664 
3.11 -0.28788518 37.387395 -800 0 -24.838884 -160.9255 -800 0 
	-800 0 -0.22960155 54.477605 -800 0 -23.205757 27.941433 
	-24.838884 -160.9255 -800 0 -0.019090652 -178.631 -800 0 
	-800 0 -23.205757 27.941433 -800 0 -0.023281715 -178.21795 
3.12 -0.28998129 36.734785 -800 0 -24.836256 -161.25641 -800 0 
	-800 0 -0.23092893 53.95346 -800 0 -23.213889 27.672813 
	-24.836256 -161.25641 -800 0 -0.019111328 -178.63804 -800 0 
	-800 0 -23.213889 27.672813 -800 0 -0.023249103 -178.22922 
3.13 -0.29181865 36.081888 -800 0 -24.833431 -161.58665 -800 0 
	-800 0 -0.23214614 53.42931 -800 0 -23.221897 27.404677 
	-24.833431 -161.58665 -800 0 -0.01913066 -178.64505 -800 0 
	-800 0 -23.221897 27.404677 -800 0 -0.023215808 -178.24043 
3.14 -0.29339574 35.428731 -800 0 -24.830412 -161.91622 -800 0 
	-800 0 -0.23325266 52.905168 -800 0 -23.22978 27.137032 
	-24.830412 -161.91622 -800 0 -0.01914868 -178.65201 -800 0 
	-800 0 -23.22978 27.137032 -800 0 -0.02318184 -178.2516 
3.15 -0.29471107 34.775338 -800 0 -24.827198 -162.24511 -800 0 
	-800 0 -0.23424794 52.381048 -800 0 -23.237541 26.869885 
	-24.827198 -162.24511 -800 0 -0.01916542 -178.65892 -800 0 
	-800 0 -23.237541 26.869885 -800 0 -0.023147208 -178.26272 
3.16 -0.29576322 34.121736 -800 0 -24.82379 -162.5733 -800 0 
	-800 0 -0.2351315 51.856961 -800 0 -23.245178 26.60324 
	-24.82379 -162.5733 -800 0 -0.019180911 -178.6658 -800 0 
	-800 0 -23.245178 26.60324 -800 0 -0.023111921 -178.2738 
3.17 -0.29655083 33.467951 -800 0 -24.820189 -162.90079 -800 0 
	-800 0 -0.23590285 51.332922 -800 0 -23.252692 26.337105 
	-24.820189 -162.90079 -800 0 -0.019195183 -178.67264 -800 0 
	-800 0 -23.252692 26.337105 -800 0 -0.023075989 -178.28482 
3.18 -0.29707262 32.814008 -800 0 -24.816396 -163.22758 -800 0 
	-800 0 -0.23656153 50.808941 -800 0 -23.260084 26.071486 
	-24.816396 -163.22758 -800 0 -0.019208266 -178.67943 -800 0 
	-800 0 -23.260084 26.071486 -800 0 -0.02303942 -178.2958 
3.19 -0.29732735 32.159932 -800 0 -24.812412 -163.55365 -800 0 
	-800 0 -0.2371071 50.285031 -800 0 -23.267355 25.806387 
	-24.812412 -163.55365 -800 0 -0.01922019 -178.68619 -800 0 
	-800 0 -23.267355 25.806387 -800 0 -0.023002222 -178.30673 
3.2 -0.29731385 31.505749 -800 0 -24.808237 -163.879 -800 0 
	-800 0 -0.23753912 49.761205 -800 0 -23.274503 25.541815 
	-24.808237 -163.879 -800 0 -0.019230984 -178.69291 -800 0 
	-800 0 -23.274503 25.541815 -800 0 -0.022964405 -178.31762 
3.21 -0.29971335 30.841146 -800 0 -24.80456 -164.21666 -800 0 
	-800 0 -0.23892852 49.231674 -800 0 -23.281726 25.270477 
	-24.80456 -164.21666 -800 0 -0.01925714 -178.69964 -800 0 
	-800 0 -23.281726 25.270477 -800 0 -0.022937744 -178.32844 
3.22 -0.30183342 30.176274 -800 0 -24.800678 -164.5536 -800 0 
	-800 0 -0.24019922 48.702196 -800 0 -23.288822 24.999669 
	-24.800678 -164.5536 -800 0 -0.019282001 -178.70632 -800 0 
	-800 0 -23.288822 24.999669 -800 0 -0.02291041 -178.33922 
3.23 -0.30367247 29.511156 -800 0 -24.796591 -164.88982 -800 0 
	-800 0 -0.24135076 48.172781 -800 0 -23.29579 24.729395 
	-24.796591 -164.88982 -800 0 -0.019305599 -178.71297 -800 0 
	-800 0 -23.29579 24.729395 -800 0 -0.02288241 -178.34996 
3.24 -0.30522898 28.845819 -800 0 -24.7923 -165.2253 -800 0 
	-800 0 -0.24238265 47.643442 -800 0 -23.302631 24.459661 
	-24.7923 -165.2253 -800 0 -0.019327963 -178.71958 -800 0 
	-800 0 -23.302631 24.459661 -800 0 -0.022853755 -178.36065 
3.25 -0.3065015 28.180287 -800 0 -24.787807 -165.56004 -800 0 
	-800 0 -0.24329447 47.11419 -800 0 -23.309345 24.190472 
	-24.787807 -165.56004 -800 0 -0.019349125 -178.72616 -800 0 
	-800 0 -23.309345 24.190472 -800 0 -0.022824453 -178.3713 
3.26 -0.30748866 27.514585 -800 0 -24.783111 -165.89404 -800 0 
	-800 0 -0.24408578 46.585035 -800 0 -23.315932 23.921833 
	-24.783111 -165.89404 -800 0 -0.019369115 -178.73269 -800 0 
	-800 0 -23.315932 23.921833 -800 0 -0.022794513 -178.3819 
3.27 -0.30818914 26.848738 -800 0 -24.778213 -166.22729 -800 0 
	-800 0 -0.24475621 46.055989 -800 0 -23.322394 23.65375 
	-24.778213 -166.22729 -800 0 -0.01938796 -178.73919 -800 0 
	-800 0 -23.322394 23.65375 -800 0 -0.022763943 -178.39246 
3.28 -0.3086017 26.182769 -800 0 -24.773115 -166.55979 -800 0 
	-800 0 -0.24530536 45.527061 -800 0 -23.32873 23.386227 
	-24.773115 -166.55979 -800 0 -0.01940569 -178.74566 -800 0 
	-800 0 -23.32873 23.386227 -800 0 -0.022732752 -178.40298 
3.29 -0.30872518 25.516704 -800 0 -24.767816 -166.89152 -800 0 
	-800 0 -0.24573289 44.998264 -800 0 -23.334941 23.119268 
	-24.767816 -166.89152 -800 0 -0.019422334 -178.75208 -800 0 
	-800 0 -23.334941 23.119268 -800 0 -0.022700948 -178.41346 
3.3 -0.30855847 24.850566 -800 0 -24.762318 -167.22248 -800 0 
	-800 0 -0.24603846 44.469606 -800 0 -23.341026 22.852879 
	-24.762318 -167.22248 -800 0 -0.019437918 -178.75847 -800 0 
	-800 0 -23.341026 22.852879 -800 0 -0.022668539 -178.4239 
3.31 -0.31101645 24.17308 -800 0 -24.757432 -167.56667 -800 0 
	-800 0 -0.24740289 43.934 -800 0 -23.34718 22.578698 
	-24.757432 -167.56667 -800 0 -0.019468293 -178.76487 -800 0 
	-800 0 -23.34718 22.578698 -800 0 -0.022648209 -178.43427 
3.32 -0.3131715 23.495334 -800 0 -24.752331 -167.91009 -800 0 
	-800 0 -0.24863882 43.398493 -800 0 -23.353201 22.305087 
	-24.752331 -167.91009 -800 0 -0.019497455 -178.77123 -800 0 
	-800 0 -23.353201 22.305087 -800 0 -0.022627227 -178.4446 
3.33 -0.31502203 22.817353 -800 0 -24.747015 -168.25276 -800 0 
	-800 0 -0.24974583 42.863095 -800 0 -23.35909 22.03205 
	-24.747015 -168.25276 -800 0 -0.019525437 -178.77756 -800 0 
	-800 0 -23.35909 22.03205 -800 0 -0.022605602 -178.45489 
3.34 -0.31656656 22.139161 -800 0 -24.741486 -168.59465 -800 0 
	-800 0 -0.25072357 42.327816 -800 0 -23.364848 21.759591 
	-24.741486 -168.59465 -800 0 -0.019552266 -178.78385 -800 0 
	-800 0 -23.364848 21.759591 -800 0 -0.022583341 -178.46514 
3.35 -0.31780367 21.460782 -800 0 -24.735743 -168.93576 -800 0 
	-800 0 -0.25157166 41.792665 -800 0 -23.370475 21.487715 
	-24.735743 -168.93576 -800 0 -0.019577972 -178.79011 -800 0 
	-800 0 -23.370475 21.487715 -800 0 -0.022560454 -178.47535 
3.36 -0.31873201 20.782239 -800 0 -24.729788 -169.27609 -800 0 
	-800 0 -0.25228978 41.257652 -800 0 -23.375971 21.216426 
	-24.729788 -169.27609 -800 0 -0.019602582 -178.79633 -800 0 
	-800 0 -23.375971 21.216426 -800 0 -0.022536948 -178.48552 
3.37 -0.31935031 20.103558 -800 0 -24.723621 -169.61564 -800 0 
	-800 0 -0.25287763 40.722786 -800 0 -23.381336 20.945727 
	-24.723621 -169.61564 -800 0 -0.019626127 -178.80252 -800 0 
	-800 0 -23.381336 20.945727 -800 0 -0.022512832 -178.49565 
3.38 -0.31965739 19.424761 -800 0 -24.717244 -169.9544 -800 0 
	-800 0 -0.25333491 40.188076 -800 0 -23.386571 20.675623 
	-24.717244 -169.9544 -800 0 -0.019648631 -178.80868 -800 0 
	-800 0 -23.386571 20.675623 -800 0 -0.022488113 -178.50575 
3.39 -0.31965213 18.745873 -800 0 -24.710657 -170.29236 -800 0 
	-800 0 -0.25366138 39.653531 -800 0 -23.391676 20.406118 
	-24.710657 -170.29236 -800 0 -0.019670123 -178.8148 -800 0 
	-800 0 -23.391676 20.406118 -800 0 -0.022462798 -178.51581 
3.4 -0.31933348 18.066915 -800 0 -24.703861 -170.62952 -800 0 
	-800 0 -0.25385678 39.119159 -800 0 -23.396652 20.137213 
	-24.703861 -170.62952 -800 0 -0.019690629 -178.82089 -800 0 
	-800 0 -23.396652 20.137213 -800 0 -0.022436895 -178.52583 
3.41 -0.32186366 17.375602 -800 0 -24.697803 -170.98084 -800 0 
	-800 0 -0.25518255 38.57823 -800 0 -23.401712 19.860409 
	-24.697803 -170.98084 -800 0 -0.019725347 -178.82699 -800 0 
	-800 0 -23.401712 19.860409 -800 0 -0.0224232 -178.53578 
3.42 -0.324066 16.684009 -800 0 -24.691519 -171.33137 -800 0 
	-800 0 -0.25637096 38.037426 -800 0 -23.406636 19.584203 
	-24.691519 -171.33137 -800 0 -0.019758936 -178.83305 -800 0 
	-800 0 -23.406636 19.584203 -800 0 -0.022408879 -178.5457 
3.43 -0.32593894 15.992157 -800 0 -24.685009 -171.68112 -800 0 
	-800 0 -0.25742168 37.496754 -800 0 -23.411423 19.308599 
	-24.685009 -171.68112 -800 0 -0.019791427 -178.83908 -800 0 
	-800 0 -23.411423 19.308599 -800 0 -0.02239394 -178.55558 
3.44 -0.32748098 15.300073 -800 0 -24.678274 -172.03007 -800 0 
	-800 0 -0.25833443 36.956222 -800 0 -23.416074 19.033599 
	-24.678274 -172.03007 -800 0 -0.019822846 -178.84507 -800 0 
	-800 0 -23.416074 19.033599 -800 0 -0.022378391 -178.56542 
3.45 -0.32869071 14.607779 -800 0 -24.671316 -172.37822 -800 0 
	-800 0 -0.25910893 36.415839 -800 0 -23.420589 18.759208 
	-24.671316 -172.37822 -800 0 -0.019853222 -178.85104 -800 0 
	-800 0 -23.420589 18.759208 -800 0 -0.022362238 -178.57523 
3.46 -0.32956682 13.9153 -800 0 -24.664134 -172.72556 -800 0 
	-800 0 -0.25974494 35.875611 -800 0 -23.424968 18.485428 
	-24.664134 -172.72556 -800 0 -0.019882582 -178.85697 -800 0 
	-800 0 -23.424968 18.485428 -800 0 -0.02234549 -178.58501 
3.47 -0.33010804 13.222659 -800 0 -24.656731 -173.0721 -800 0 
	-800 0 -0.26024225 35.335548 -800 0 -23.429212 18.212263 
	-24.656731 -173.0721 -800 0 -0.019910952 -178.86288 -800 0 
	-800 0 -23.429212 18.212263 -800 0 -0.022328154 -178.59475 
3.48 -0.33031323 12.529879 -800 0 -24.649107 -173.41783 -800 0 
	-800 0 -0.26060065 34.795655 -800 0 -23.433321 17.939714 
	-24.649107 -173.41783 -800 0 -0.019938358 -178.86875 -800 0 
	-800 0 -23.433321 17.939714 -800 0 -0.022310235 -178.60446 
3.49 -0.3301813 11.836984 -800 0 -24.641262 -173.76275 -800 0 
	-800 0 -0.26081996 34.255941 -800 0 -23.437296 17.667786 
	-24.641262 -173.76275 -800 0 -0.019964827 -178.87459 -800 0 
	-800 0 -23.437296 17.667786 -800 0 -0.022291743 -178.61414 
3.5 -0.32971125 11.143997 -800 0 -24.633199 -174.10685 -800 0 
	-800 0 -0.26090004 33.716412 -800 0 -23.441137 17.39648 
	-24.633199 -174.10685 -800 0 -0.019990382 -178.88041 -800 0 
	-800 0 -23.441137 17.39648 -800 0 -0.022272682 -178.62378 
3.51 -0.33232677 10.437626 -800 0 -24.626014 -174.46602 -800 0 
	-800 0 -0.26210461 33.172497 -800 0 -23.445145 17.11834 
	-24.626014 -174.46602 -800 0 -0.020029548 -178.88622 -800 0 
	-800 0 -23.445145 17.11834 -800 0 -0.022263714 -178.63336 
3.52 -0.33458789 9.7309233 -800 0 -24.618591 -174.82438 -800 0 
	-800 0 -0.2631659 32.628715 -800 0 -23.449012 16.840814 
	-24.618591 -174.82438 -800 0 -0.020067669 -178.892 -800 0 
	-800 0 -23.449012 16.840814 -800 0 -0.022254151 -178.64291 
3.53 -0.33649302 9.0239148 -800 0 -24.610932 -175.18194 -800 0 
	-800 0 -0.26408368 32.08507 -800 0 -23.452737 16.563906 
	-24.610932 -175.18194 -800 0 -0.020104772 -178.89775 -800 0 
	-800 0 -23.452737 16.563906 -800 0 -0.022244 -178.65243 
3.54 -0.33804063 8.3166242 -800 0 -24.603037 -175.5387 -800 0 
	-800 0 -0.26485774 31.54157 -800 0 -23.456322 16.287617 
	-24.603037 -175.5387 -800 0 -0.020140884 -178.90348 -800 0 
	-800 0 -23.456322 16.287617 -800 0 -0.022233267 -178.66192 
3.55 -0.3392293 7.6090761 -800 0 -24.594908 -175.89466 -800 0 
	-800 0 -0.2654879 30.998221 -800 0 -23.459767 16.01195 
	-24.594908 -175.89466 -800 0 -0.020176032 -178.90917 -800 0 
	-800 0 -23.459767 16.01195 -800 0 -0.022221959 -178.67138 
3.56 -0.34005769 6.9012947 -800 0 -24.586545 -176.2498 -800 0 
	-800 0 -0.26597399 30.455029 -800 0 -23.463072 15.736908 
	-24.586545 -176.2498 -800 0 -0.02021024 -178.91484 -800 0 
	-800 0 -23.463072 15.736908 -800 0 -0.022210082 -178.6808 
3.57 -0.34052455 6.1933045 -800 0 -24.577949 -176.60413 -800 0 
	-800 0 -0.26631588 29.912 -800 0 -23.466238 15.462491 
	-24.577949 -176.60413 -800 0 -0.020243535 -178.92047 -800 0 
	-800 0 -23.466238 15.462491 -800 0 -0.022197644 -178.6902 
3.58 -0.34062872 5.4851297 -800 0 -24.569122 -176.95764 -800 0 
	-800 0 -0.26651345 29.369141 -800 0 -23.469265 15.188704 
	-24.569122 -176.95764 -800 0 -0.02027594 -178.92608 -800 0 
	-800 0 -23.469265 15.188704 -800 0 -0.022184648 -178.69956 
3.59 -0.34036913 4.7767948 -800 0 -24.560065 -177.31033 -800 0 
	-800 0 -0.2665666 28.826455 -800 0 -23.472153 14.915546 
	-24.560065 -177.31033 -800 0 -0.020307482 -178.93167 -800 0 
	-800 0 -23.472153 14.915546 -800 0 -0.022171103 -178.70889 
3.6 -0.33974481 4.068324 -800 0 -24.550779 -177.6622 -800 0 
	-800 0 -0.26647524 28.28395 -800 0 -23.474903 14.643021 
	-24.550779 -177.6622 -800 0 -0.020338183 -178.93722 -800 0 
	-800 0 -23.474903 14.643021 -800 0 -0.022157013 -178.7182 
3.61 -0.34245648 3.3454806 -800 0 -24.542529 -178.02996 -800 0 
	-800 0 -0.26758398 27.736504 -800 0 -23.477878 14.363343 
	-24.542529 -178.02996 -800 0 -0.020381853 -178.94277 -800 0 
	-800 0 -23.477878 14.363343 -800 0 -0.022152507 -178.72745 
3.62 -0.34478525 2.6222349 -800 0 -24.53403 -178.39693 -800 0 
	-800 0 -0.26854349 27.189178 -800 0 -23.480706 14.084287 
	-24.53403 -178.39693 -800 0 -0.020424559 -178.94829 -800 0 
	-800 0 -23.480706 14.084287 -800 0 -0.022147435 -178.73667 
3.63 -0.34672943 1.8986129 -800 0 -24.525284 -178.7631 -800 0 
	-800 0 -0.26935359 26.641976 -800 0 -23.48339 13.805854 
	-24.525284 -178.7631 -800 0 -0.020466325 -178.95379 -800 0 
	-800 0 -23.48339 13.805854 -800 0 -0.022141802 -178.74587 
3.64 -0.34828746 1.1746403 -800 0 -24.516292 -179.12846 -800 0 
	-800 0 -0.27001416 26.094904 -800 0 -23.485929 13.528047 
	-24.516292 -179.12846 -800 0 -0.020507178 -178.95926 -800 0 
	-800 0 -23.485929 13.528047 -800 0 -0.022135612 -178.75503 
3.65 -0.34945786 0.45034337 -800 0 -24.507054 -179.49302 -800 0 
	-800 0 -0.27052506 25.547967 -800 0 -23.488323 13.250868 
	-24.507054 -179.49302 -800 0 -0.020547143 -178.9647 -800 0 
	-800 0 -23.488323 13.250868 -800 0 -0.022128873 -178.76417 
3.66 -0.35023924 -0.27425194 -800 0 -24.497573 -179.85677 -800 0 
	-800 0 -0.2708862 25.001169 -800 0 -23.490573 12.974317 
	-24.497573 -179.85677 -800 0 -0.020586242 -178.97012 -800 0 
	-800 0 -23.490573 12.974317 -800 0 -0.022121589 -178.77327 
3.67 -0.35063034 -0.9991194 -800 0 -24.487849 179.78029 -800 0 
	-800 0 -0.2710975 24.454516 -800 0 -23.492681 12.698396 
	-24.487849 179.78029 -800 0 -0.020624501 -178.97551 -800 0 
	-800 0 -23.492681 12.698396 -800 0 -0.022113765 -178.78235 
3.68 -0.35062996 -1.7242327 -800 0 -24.477884 179.41816 -800 0 
	-800 0 -0.2711589 23.908013 -800 0 -23.494645 12.423107 
	-24.477884 179.41816 -800 0 -0.020661944 -178.98087 -800 0 
	-800 0 -23.494645 12.423107 -800 0 -0.022105407 -178.79141 
3.69 -0.35023702 -2.4495656 -800 0 -24.467679 179.05685 -800 0 
	-800 0 -0.27107035 23.361662 -800 0 -23.496468 12.148451 
	-24.467679 179.05685 -800 0 -0.020698592 -178.98621 -800 0 
	-800 0 -23.496468 12.148451 -800 0 -0.022096519 -178.80043 
3.7 -0.34945055 -3.1750917 -800 0 -24.457236 178.69636 -800 0 
	-800 0 -0.27083183 22.815471 -800 0 -23.498149 11.87443 
	-24.457236 178.69636 -800 0 -0.02073447 -178.99152 -800 0 
	-800 0 -23.498149 11.87443 -800 0 -0.022087106 -178.80943 
3.71 -0.35226609 -3.9158702 -800 0 -24.448006 178.31926 -800 0 
	-800 0 -0.27191232 22.262571 -800 0 -23.500105 11.592161 
	-24.448006 178.31926 -800 0 -0.020782621 -178.99683 -800 0 
	-800 0 -23.500105 11.592161 -800 0 -0.022087627 -178.81837 
3.72 -0.35466802 -4.6571358 -800 0 -24.438517 177.94295 -800 0 
	-800 0 -0.27283601 21.709761 -800 0 -23.501911 11.310514 
	-24.438517 177.94295 -800 0 -0.020829884 -179.00211 -800 0 
	-800 0 -23.501911 11.310514 -800 0 -0.022087605 -178.82729 
3.73 -0.35665459 -5.3988601 -800 0 -24.42877 177.56742 -800 0 
	-800 0 -0.27360278 21.157044 -800 0 -23.503567 11.02949 
	-24.42877 177.56742 -800 0 -0.020876282 -179.00736 -800 0 
	-800 0 -23.503567 11.02949 -800 0 -0.022087047 -178.83618 
3.74 -0.35822412 -6.1410143 -800 0 -24.418767 177.19269 -800 0 
	-800 0 -0.27421253 20.604426 -800 0 -23.505075 10.749092 
	-24.418767 177.19269 -800 0 -0.020921839 -179.01259 -800 0 
	-800 0 -23.505075 10.749092 -800 0 -0.022085956 -178.84504 
3.75 -0.35937506 -6.8835694 -800 0 -24.40851 176.81875 -800 0 
	-800 0 -0.27466518 20.05191 -800 0 -23.506434 10.469319 
	-24.40851 176.81875 -800 0 -0.02096658 -179.0178 -800 0 
	-800 0 -23.506434 10.469319 -800 0 -0.022084338 -178.85388 
3.76 -0.36010599 -7.6264965 -800 0 -24.397999 176.44561 -800 0 
	-800 0 -0.27496067 19.499501 -800 0 -23.507646 10.190174 
	-24.397999 176.44561 -800 0 -0.021010526 -179.02298 -800 0 
	-800 0 -23.507646 10.190174 -800 0 -0.022082196 -178.86269 
3.77 -0.36041555 -8.369766 -800 0 -24.387237 176.07328 -800 0 
	-800 0 -0.27509895 18.947203 -800 0 -23.508711 9.9116576 
	-24.387237 176.07328 -800 0 -0.0210537 -179.02814 -800 0 
	-800 0 -23.508711 9.9116576 -800 0 -0.022079534 -178.87148 
3.78 -0.36030254 -9.1133486 -800 0 -24.376224 175.70175 -800 0 
	-800 0 -0.27508 18.395021 -800 0 -23.50963 9.633771 
	-24.376224 175.70175 -800 0 -0.021096125 -179.03327 -800 0 
	-800 0 -23.50963 9.633771 -800 0 -0.022076357 -178.88024 
3.79 -0.35976584 -9.8572145 -800 0 -24.364963 175.33102 -800 0 
	-800 0 -0.27490382 17.842957 -800 0 -23.510403 9.3565152 
	-24.364963 175.33102 -800 0 -0.021137823 -179.03838 -800 0 
	-800 0 -23.510403 9.3565152 -800 0 -0.022072668 -178.88898 
3.8 -0.35880445 -10.601334 -800 0 -24.353456 174.96111 -800 0 
	-800 0 -0.27457042 17.291017 -800 0 -23.511032 9.0798912 
	-24.353456 174.96111 -800 0 -0.021178815 -179.04347 -800 0 
	-800 0 -23.511032 9.0798912 -800 0 -0.02206847 -178.89769 
3.81 -0.3617291 -11.361414 -800 0 -24.343359 174.57403 -800 0 
	-800 0 -0.27569415 16.732248 -800 0 -23.512031 8.7945323 
	-24.343359 174.57403 -800 0 -0.021231316 -179.04855 -800 0 
	-800 0 -23.512031 8.7945323 -800 0 -0.022073788 -178.90635 
3.82 -0.36420717 -12.122069 -800 0 -24.332994 174.18772 -800 0 
	-800 0 -0.27665363 16.173524 -800 0 -23.512877 8.5097884 
	-24.332994 174.18772 -800 0 -0.021282998 -179.0536 -800 0 
	-800 0 -23.512877 8.5097884 -800 0 -0.022078592 -178.91497 
3.83 -0.3662368 -12.883268 -800 0 -24.322362 173.80218 -800 0 
	-800 0 -0.27744875 15.614849 -800 0 -23.513571 8.2256607 
	-24.322362 173.80218 -800 0 -0.021333884 -179.05863 -800 0 
	-800 0 -23.513571 8.2256607 -800 0 -0.022082886 -178.92358 
3.84 -0.36781621 -13.644976 -800 0 -24.311465 173.41742 -800 0 
	-800 0 -0.27807944 15.056228 -800 0 -23.514112 7.9421507 
	-24.311465 173.41742 -800 0 -0.021383997 -179.06363 -800 0 
	-800 0 -23.514112 7.9421507 -800 0 -0.022086672 -178.93216 
3.85 -0.36894376 -14.407161 -800 0 -24.300305 173.03344 -800 0 
	-800 0 -0.27854562 14.497663 -800 0 -23.514502 7.6592596 
	-24.300305 173.03344 -800 0 -0.021433359 -179.06862 -800 0 
	-800 0 -23.514502 7.6592596 -800 0 -0.022089955 -178.94071 
3.86 -0.36961793 -15.169789 -800 0 -24.288883 172.65024 -800 0 
	-800 0 -0.27884725 13.93916 -800 0 -23.514742 7.3769886 
	-24.288883 172.65024 -800 0 -0.021481991 -179.07358 -800 0 
	-800 0 -23.514742 7.3769886 -800 0 -0.022092738 -178.94925 
3.87 -0.36983735 -15.932826 -800 0 -24.277202 172.26784 -800 0 
	-800 0 -0.27898431 13.380723 -800 0 -23.514833 7.0953389 
	-24.277202 172.26784 -800 0 -0.021529915 -179.07852 -800 0 
	-800 0 -23.514833 7.0953389 -800 0 -0.022095023 -178.95776 
3.88 -0.36960074 -16.696239 -800 0 -24.265263 171.88623 -800 0 
	-800 0 -0.27895679 12.822355 -800 0 -23.514774 6.8143116 
	-24.265263 171.88623 -800 0 -0.021577151 -179.08343 -800 0 
	-800 0 -23.514774 6.8143116 -800 0 -0.022096814 -178.96625 
3.89 -0.36890698 -17.459991 -800 0 -24.253068 171.50542 -800 0 
	-800 0 -0.2787647 12.264062 -800 0 -23.514569 6.5339076 
	-24.253068 171.50542 -800 0 -0.021623721 -179.08833 -800 0 
	-800 0 -23.514569 6.5339076 -800 0 -0.022098112 -178.97471 
3.9 -0.36775506 -18.22405 -800 0 -24.240618 171.12541 -800 0 
	-800 0 -0.27840807 11.705846 -800 0 -23.514216 6.2541279 
	-24.240618 171.12541 -800 0 -0.021669645 -179.0932 -800 0 
	-800 0 -23.514216 6.2541279 -800 0 -0.022098922 -178.98316 
3.91 -0.37079363 -19.004549 -800 0 -24.2298 170.72786 -800 0 
	-800 0 -0.27965319 11.140903 -800 0 -23.51434 5.9652733 
	-24.2298 170.72786 -800 0 -0.02172623 -179.09806 -800 0 
	-800 0 -23.51434 5.9652733 -800 0 -0.022108633 -178.99153 
3.92 -0.37335048 -19.785705 -800 0 -24.218705 170.33107 -800 0 
	-800 0 -0.28072679 10.57595 -800 0 -23.514308 5.6770217 
	-24.218705 170.33107 -800 0 -0.021782059 -179.1029 -800 0 
	-800 0 -23.514308 5.6770217 -800 0 -0.022117861 -178.99988 
3.93 -0.37542359 -20.567478 -800 0 -24.207335 169.93504 -800 0 
	-800 0 -0.28162875 10.010991 -800 0 -23.514122 5.3893748 
	-24.207335 169.93504 -800 0 -0.021837155 -179.10771 -800 0 
	-800 0 -23.514122 5.3893748 -800 0 -0.022126606 -179.00822 
3.94 -0.37701109 -21.349831 -800 0 -24.195693 169.53976 -800 0 
	-800 0 -0.28235898 9.4460321 -800 0 -23.513782 5.102334 
	-24.195693 169.53976 -800 0 -0.021891538 -179.11251 -800 0 
	-800 0 -23.513782 5.102334 -800 0 -0.022134871 -179.01653 
3.95 -0.37811126 -22.132723 -800 0 -24.18378 169.14526 -800 0 
	-800 0 -0.28291742 8.8810767 -800 0 -23.513289 4.8159008 
	-24.18378 169.14526 -800 0 -0.021945229 -179.11728 -800 0 
	-800 0 -23.513289 4.8159008 -800 0 -0.022142659 -179.02482 
3.96 -0.37872251 -22.916117 -800 0 -24.171598 168.75152 -800 0 
	-800 0 -0.28330402 8.3161298 -800 0 -23.512644 4.5300766 
	-24.171598 168.75152 -800 0 -0.021998249 -179.12203 -800 0 
	-800 0 -23.512644 4.5300766 -800 0 -0.022149971 -179.03309 
3.97 -0.37884342 -23.699971 -800 0 -24.159149 168.35857 -800 0 
	-800 0 -0.28351875 7.7511961 -800 0 -23.511849 4.2448627 
	-24.159149 168.35857 -800 0 -0.022050618 -179.12676 -800 0 
	-800 0 -23.511849 4.2448627 -800 0 -0.02215681 -179.04133 
3.98 -0.3784727 -24.484245 -800 0 -24.146436 167.96639 -800 0 
	-800 0 -0.28356159 7.1862804 -800 0 -23.510904 3.9602606 
	-24.146436 167.96639 -800 0 -0.022102355 -179.13148 -800 0 
	-800 0 -23.510904 3.9602606 -800 0 -0.022163176 -179.04956 
3.99 -0.37760922 -25.268899 -800 0 -24.13346 167.57501 -800 0 
	-800 0 -0.28343256 6.6213875 -800 0 -23.50981 3.6762715 
	-24.13346 167.57501 -800 0 -0.02215348 -179.13617 -800 0 
	-800 0 -23.50981 3.6762715 -800 0 -0.022169072 -179.05777 
4 -0.37625198 -26.053891 -800 0 -24.120223 167.18441 -800 0 
	-800 0 -0.28313168 6.0565221 -800 0 -23.508568 3.3928967 
	-24.120223 167.18441 -800 0 -0.022204012 -179.14084 -800 0 
	-800 0 -23.508568 3.3928967 -800 0 -0.022174499 -179.06596 
4.01 -0.37948911 -26.857171 -800 0 -24.108777 166.77611 -800 0 
	-800 0 -0.28455212 5.4851875 -800 0 -23.507895 3.1003346 
	-24.108777 166.77611 -800 0 -0.02226492 -179.1455 -800 0 
	-800 0 -23.507895 3.1003346 -800 0 -0.022188051 -179.07407 
4.02 -0.38220233 -27.661181 -800 0 -24.097045 166.36855 -800 0 
	-800 0 -0.28579392 4.9137851 -800 0 -23.507066 2.8083626 
	-24.097045 166.36855 -800 0 -0.022325129 -179.15014 -800 0 
	-800 0 -23.507066 2.8083626 -800 0 -0.022201147 -179.08217 
4.03 -0.38438946 -28.465876 -800 0 -24.085031 165.96172 -800 0 
	-800 0 -0.28685694 4.3423204 -800 0 -23.506081 2.5169825 
	-24.085031 165.96172 -800 0 -0.022384662 -179.15476 -800 0 
	-800 0 -23.506081 2.5169825 -800 0 -0.022213789 -179.09024 
4.04 -0.38604849 -29.271209 -800 0 -24.072736 165.55565 -800 0 
	-800 0 -0.28774108 3.770799 -800 0 -23.504942 2.2261964 
	-24.072736 165.55565 -800 0 -0.022443537 -179.15936 -800 0 
	-800 0 -23.504942 2.2261964 -800 0 -0.022225976 -179.0983 
4.05 -0.38717758 -30.077133 -800 0 -24.060162 165.15033 -800 0 
	-800 0 -0.28844624 3.1992267 -800 0 -23.503651 1.936006 
	-24.060162 165.15033 -800 0 -0.022501774 -179.16394 -800 0 
	-800 0 -23.503651 1.936006 -800 0 -0.022237711 -179.10633 
4.06 -0.38777506 -30.883601 -800 0 -24.047313 164.74578 -800 0 
	-800 0 -0.28897235 2.6276091 -800 0 -23.502208 1.6464135 
	-24.047313 164.74578 -800 0 -0.022559394 -179.1685 -800 0 
	-800 0 -23.502208 1.6464135 -800 0 -0.022248995 -179.11435 
4.07 -0.38783946 -31.690564 -800 0 -24.03419 164.342 -800 0 
	-800 0 -0.28931936 2.0559522 -800 0 -23.500614 1.3574206 
	-24.03419 164.342 -800 0 -0.022616414 -179.17304 -800 0 
	-800 0 -23.500614 1.3574206 -800 0 -0.022259827 -179.12235 
4.08 -0.38736945 -32.497975 -800 0 -24.020795 163.93899 -800 0 
	-800 0 -0.28948724 1.484262 -800 0 -23.498871 1.0690293 
	-24.020795 163.93899 -800 0 -0.022672854 -179.17756 -800 0 
	-800 0 -23.498871 1.0690293 -800 0 -0.022270209 -179.13033 
4.09 -0.3863639 -33.305783 -800 0 -24.00713 163.53677 -800 0 
	-800 0 -0.28947598 0.91254448 -800 0 -23.496979 0.78124143 
	-24.00713 163.53677 -800 0 -0.022728732 -179.18206 -800 0 
	-800 0 -23.496979 0.78124143 -800 0 -0.022280142 -179.13829 
4.1 -0.38482186 -34.11394 -800 0 -23.993198 163.13534 -800 0 
	-800 0 -0.28928559 0.34080592 -800 0 -23.494941 0.49405893 
	-23.993198 163.13534 -800 0 -0.022784066 -179.18655 -800 0 
	-800 0 -23.494941 0.49405893 -800 0 -0.022289624 -179.14624 
4.11 -0.38823576 -34.941251 -800 0 -23.981269 162.7164 -800 0 
	-800 0 -0.29088564 -0.2371818 -800 0 -23.493522 0.19774303 
	-23.981269 162.7164 -800 0 -0.02284916 -179.19102 -800 0 
	-800 0 -23.493522 0.19774303 -800 0 -0.022306508 -179.15411 
4.12 -0.391078 -35.76934 -800 0 -23.969046 162.29818 -800 0 
	-800 0 -0.29229985 -0.81528985 -800 0 -23.491948 -0.097992385 
	-23.969046 162.29818 -800 0 -0.02291361 -179.19548 -800 0 
	-800 0 -23.491948 -0.097992385 -800 0 -0.022322959 -179.16197 
4.13 -0.39334624 -36.598151 -800 0 -23.956533 161.88069 -800 0 
	-800 0 -0.29352804 -1.3935111 -800 0 -23.49022 -0.39314463 
	-23.956533 161.88069 -800 0 -0.022977436 -179.19992 -800 0 
	-800 0 -23.49022 -0.39314463 -800 0 -0.022338977 -179.1698 
4.14 -0.39503836 -37.427627 -800 0 -23.943731 161.46395 -800 0 
	-800 0 -0.29457008 -1.9718385 -800 0 -23.488339 -0.68771104 
	-23.943731 161.46395 -800 0 -0.023040657 -179.20434 -800 0 
	-800 0 -23.488339 -0.68771104 -800 0 -0.022354563 -179.17762 
4.15 -0.39615244 -38.257712 -800 0 -23.930644 161.04796 -800 0 
	-800 0 -0.29542584 -2.5502644 -800 0 -23.486306 -0.9816889 
	-23.930644 161.04796 -800 0 -0.023103291 -179.20874 -800 0 
	-800 0 -23.486306 -0.9816889 -800 0 -0.022369716 -179.18542 
4.16 -0.39668677 -39.088348 -800 0 -23.917272 160.63273 -800 0 
	-800 0 -0.2960952 -3.1287815 -800 0 -23.484124 -1.2750755 
	-23.917272 160.63273 -800 0 -0.023165358 -179.21312 -800 0 
	-800 0 -23.484124 -1.2750755 -800 0 -0.022384437 -179.19321 
4.17 -0.39663987 -39.919478 -800 0 -23.903619 160.21826 -800 0 
	-800 0 -0.2965781 -3.7073821 -800 0 -23.481792 -1.5678682 
	-23.903619 160.21826 -800 0 -0.023226875 -179.21749 -800 0 
	-800 0 -23.481792 -1.5678682 -800 0 -0.022398724 -179.20098 
4.18 -0.39601044 -40.751042 -800 0 -23.889687 159.80458 -800 0 
	-800 0 -0.29687447 -4.2860582 -800 0 -23.479312 -1.8600642 
	-23.889687 159.80458 -800 0 -0.023287862 -179.22184 -800 0 
	-800 0 -23.479312 -1.8600642 -800 0 -0.022412579 -179.20873 
4.19 -0.39479743 -41.582981 -800 0 -23.875478 159.39168 -800 0 
	-800 0 -0.29698428 -4.8648019 -800 0 -23.476686 -2.1516607 
	-23.875478 159.39168 -800 0 -0.023348335 -179.22617 -800 0 
	-800 0 -23.476686 -2.1516607 -800 0 -0.022426 -179.21646 
4.2 -0.393 -42.415237 -800 0 -23.860994 158.97958 -800 0 
	-800 0 -0.2969075 -5.4436051 -800 0 -23.473915 -2.4426551 
	-23.860994 158.97958 -800 0 -0.023408313 -179.23048 -800 0 
	-800 0 -23.473915 -2.4426551 -800 0 -0.022438986 -179.22418 
4.21 -0.39648964 -43.264237 -800 0 -23.848898 158.55064 -800 0 
	-800 0 -0.29861387 -6.0286838 -800 0 -23.471782 -2.7425939 
	-23.848898 158.55064 -800 0 -0.023476281 -179.23478 -800 0 
	-800 0 -23.471782 -2.7425939 -800 0 -0.022458419 -179.23183 
4.22 -0.39936411 -44.114007 -800 0 -23.836503 158.12243 -800 0 
	-800 0 -0.30012661 -6.6139188 -800 0 -23.469496 -3.0419523 
	-23.836503 158.12243 -800 0 -0.023543654 -179.23906 -800 0 
	-800 0 -23.469496 -3.0419523 -800 0 -0.022477432 -179.23947 
4.23 -0.40162102 -44.964482 -800 0 -23.82381 157.69493 -800 0 
	-800 0 -0.30144552 -7.199301 -800 0 -23.467059 -3.3407268 
	-23.82381 157.69493 -800 0 -0.023610451 -179.24333 -800 0 
	-800 0 -23.467059 -3.3407268 -800 0 -0.022496026 -179.2471 
4.24 -0.40325829 -45.815596 -800 0 -23.810821 157.26817 -800 0 
	-800 0 -0.30257041 -7.7848209 -800 0 -23.46447 -3.6389136 
	-23.810821 157.26817 -800 0 -0.023676692 -179.24757 -800 0 
	-800 0 -23.46447 -3.6389136 -800 0 -0.0225142 -179.2547 
4.25 -0.40427402 -46.667282 -800 0 -23.79754 156.84216 -800 0 
	-800 0 -0.30350113 -8.3704688 -800 0 -23.461733 -3.936509 
	-23.79754 156.84216 -800 0 -0.023742394 -179.2518 -800 0 
	-800 0 -23.461733 -3.936509 -800 0 -0.022531953 -179.26229 
4.26 -0.4046666 -47.519473 -800 0 -23.783968 156.4169 -800 0 
	-800 0 -0.30423755 -8.9562349 -800 0 -23.458847 -4.2335094 
	-23.783968 156.4169 -800 0 -0.023807576 -179.25602 -800 0 
	-800 0 -23.458847 -4.2335094 -800 0 -0.022549283 -179.26987 
4.27 -0.40443467 -48.3721 -800 0 -23.770107 155.99242 -800 0 
	-800 0 -0.30477956 -9.5421091 -800 0 -23.455815 -4.5299108 
	-23.770107 155.99242 -800 0 -0.023872255 -179.26022 -800 0 
	-800 0 -23.455815 -4.5299108 -800 0 -0.022566191 -179.27743 
4.28 -0.40357709 -49.225096 -800 0 -23.755961 155.56872 -800 0 
	-800 0 -0.30512708 -10.128081 -800 0 -23.452637 -4.8257095 
	-23.755961 155.56872 -800 0 -0.02393645 -179.2644 -800 0 
	-800 0 -23.452637 -4.8257095 -800 0 -0.022582674 -179.28497 
4.29 -0.40209301 -50.078391 -800 0 -23.74153 155.14581 -800 0 
	-800 0 -0.30528004 -10.71414 -800 0 -23.449317 -5.1209017 
	-23.74153 155.14581 -800 0 -0.024000179 -179.26856 -800 0 
	-800 0 -23.449317 -5.1209017 -800 0 -0.022598731 -179.2925 
4.3 -0.39998183 -50.931917 -800 0 -23.726818 154.7237 -800 0 
	-800 0 -0.30523841 -11.300276 -800 0 -23.445853 -5.4154834 
	-23.726818 154.7237 -800 0 -0.024063458 -179.27271 -800 0 
	-800 0 -23.445853 -5.4154834 -800 0 -0.022614362 -179.30002 
4.31 -0.40357965 -51.798946 -800 0 -23.714926 154.28578 -800 0 
	-800 0 -0.30696175 -11.893048 -800 0 -23.443025 -5.7190153 
	-23.714926 154.28578 -800 0 -0.0241327 -179.27684 -800 0 
	-800 0 -23.443025 -5.7190153 -800 0 -0.022635936 -179.30748 
4.32 -0.4065265 -52.666692 -800 0 -23.702727 153.84857 -800 0 
	-800 0 -0.30848259 -12.485989 -800 0 -23.440046 -6.0219542 
	-23.702727 153.84857 -800 0 -0.024201394 -179.28095 -800 0 
	-800 0 -23.440046 -6.0219542 -800 0 -0.022657096 -179.31492 
4.33 -0.40882007 -53.535081 -800 0 -23.690225 153.41206 -800 0 
	-800 0 -0.30980069 -13.079088 -800 0 -23.436918 -6.3242954 
	-23.690225 153.41206 -800 0 -0.024269558 -179.28504 -800 0 
	-800 0 -23.436918 -6.3242954 -800 0 -0.022677841 -179.32235 
4.34 -0.41045836 -54.404038 -800 0 -23.677421 152.97629 -800 0 
	-800 0 -0.31091585 -13.672332 -800 0 -23.433641 -6.6260338 
	-23.677421 152.97629 -800 0 -0.024337211 -179.28912 -800 0 
	-800 0 -23.433641 -6.6260338 -800 0 -0.022698168 -179.32977 
4.35 -0.41143964 -55.273488 -800 0 -23.664317 152.54126 -800 0 
	-800 0 -0.3118279 -14.265709 -800 0 -23.430218 -6.9271646 
	-23.664317 152.54126 -800 0 -0.02440437 -179.29319 -800 0 
	-800 0 -23.430218 -6.9271646 -800 0 -0.022718077 -179.33717 
4.36 -0.41176246 -56.143354 -800 0 -23.650916 152.10699 -800 0 
	-800 0 -0.31253668 -14.859205 -800 0 -23.42665 -7.2276827 
	-23.650916 152.10699 -800 0 -0.024471055 -179.29724 -800 0 
	-800 0 -23.42665 -7.2276827 -800 0 -0.022737565 -179.34456 
4.37 -0.41142567 -57.01356 -800 0 -23.63722 151.67349 -800 0 
	-800 0 -0.31304208 -15.452809 -800 0 -23.422938 -7.5275831 
	-23.63722 151.67349 -800 0 -0.024537283 -179.30127 -800 0 
	-800 0 -23.422938 -7.5275831 -800 0 -0.022756631 -179.35194 
4.38 -0.41042837 -57.884029 -800 0 -23.623231 151.24078 -800 0 
	-800 0 -0.31334398 -16.046506 -800 0 -23.419084 -7.8268607 
	-23.623231 151.24078 -800 0 -0.024603072 -179.30529 -800 0 
	-800 0 -23.419084 -7.8268607 -800 0 -0.022775273 -179.3593 
4.39 -0.40876999 -58.754682 -800 0 -23.608951 150.80886 -800 0 
	-800 0 -0.31344232 -16.640283 -800 0 -23.415089 -8.1255103 
	-23.608951 150.80886 -800 0 -0.024668441 -179.30929 -800 0 
	-800 0 -23.415089 -8.1255103 -800 0 -0.022793489 -179.36665 
4.4 -0.40645023 -59.625444 -800 0 -23.594383 150.37776 -800 0 
	-800 0 -0.31333705 -17.234127 -800 0 -23.410955 -8.4235268 
	-23.594383 150.37776 -800 0 -0.024733405 -179.31328 -800 0 
	-800 0 -23.410955 -8.4235268 -800 0 -0.022811278 -179.37398 
4.41 -0.41031839 -60.506655 -800 0 -23.583048 149.93212 -800 0 
	-800 0 -0.31503311 -17.835253 -800 0 -23.407448 -8.7308868 
	-23.583048 149.93212 -800 0 -0.02480237 -179.31724 -800 0 
	-800 0 -23.407448 -8.7308868 -800 0 -0.02283541 -179.38126 
4.42 -0.41350732 -61.388502 -800 0 -23.571401 149.48717 -800 0 
	-800 0 -0.31651632 -18.436537 -800 0 -23.403793 -9.0376281 
	-23.571401 149.48717 -800 0 -0.024870832 -179.32119 -800 0 
	-800 0 -23.403793 -9.0376281 -800 0 -0.022859127 -179.38853 
4.43 -0.41601484 -62.270903 -800 0 -23.559443 149.04293 -800 0 
	-800 0 -0.31778643 -19.037964 -800 0 -23.39999 -9.3437445 
	-23.559443 149.04293 -800 0 -0.02493881 -179.32512 -800 0 
	-800 0 -23.39999 -9.3437445 -800 0 -0.022882427 -179.39579 
4.44 -0.41783908 -63.153776 -800 0 -23.547177 148.59941 -800 0 
	-800 0 -0.31884322 -19.639518 -800 0 -23.396042 -9.6492295 
	-23.547177 148.59941 -800 0 -0.025006324 -179.32904 -800 0 
	-800 0 -23.396042 -9.6492295 -800 0 -0.022905306 -179.40304 
4.45 -0.41897847 -64.037038 -800 0 -23.534604 148.15663 -800 0 
	-800 0 -0.3196865 -20.241184 -800 0 -23.39195 -9.9540768 
	-23.534604 148.15663 -800 0 -0.025073391 -179.33295 -800 0 
	-800 0 -23.39195 -9.9540768 -800 0 -0.022927764 -179.41027 
4.46 -0.41943175 -64.920606 -800 0 -23.521727 147.71461 -800 0 
	-800 0 -0.32031611 -20.842945 -800 0 -23.387714 -10.25828 
	-23.521727 147.71461 -800 0 -0.025140031 -179.33684 -800 0 
	-800 0 -23.387714 -10.25828 -800 0 -0.022949798 -179.41749 
4.47 -0.419198 -65.804397 -800 0 -23.508547 147.27335 -800 0 
	-800 0 -0.32073191 -21.444786 -800 0 -23.383338 -10.561832 
	-23.508547 147.27335 -800 0 -0.025206261 -179.34071 -800 0 
	-800 0 -23.383338 -10.561832 -800 0 -0.022971406 -179.4247 
4.48 -0.41827657 -66.688326 -800 0 -23.495066 146.83288 -800 0 
	-800 0 -0.3209338 -22.046688 -800 0 -23.378821 -10.864728 
	-23.495066 146.83288 -800 0 -0.025272101 -179.34457 -800 0 
	-800 0 -23.378821 -10.864728 -800 0 -0.022992586 -179.4319 
4.49 -0.41666716 -67.572311 -800 0 -23.481286 146.39321 -800 0 
	-800 0 -0.32092172 -22.648637 -800 0 -23.374166 -11.166959 
	-23.481286 146.39321 -800 0 -0.025337569 -179.34842 -800 0 
	-800 0 -23.374166 -11.166959 -800 0 -0.023013335 -179.43908 
4.5 -0.41436976 -68.456266 -800 0 -23.467209 145.95436 -800 0 
	-800 0 -0.32069563 -23.250614 -800 0 -23.369375 -11.468521 
	-23.467209 145.95436 -800 0 -0.025402682 -179.35225 -800 0 
	-800 0 -23.369375 -11.468521 -800 0 -0.023033652 -179.44625 
4.51 -0.41841669 -69.350421 -800 0 -23.456534 145.50248 -800 0 
	-800 0 -0.32234241 -23.860603 -800 0 -23.365229 -11.779932 
	-23.456534 145.50248 -800 0 -0.02547019 -179.35607 -800 0 
	-800 0 -23.365229 -11.779932 -800 0 -0.023060796 -179.45338 
4.52 -0.42175415 -70.245084 -800 0 -23.445538 145.05129 -800 0 
	-800 0 -0.32376433 -24.470712 -800 0 -23.360936 -12.090686 
	-23.445538 145.05129 -800 0 -0.025537249 -179.35987 -800 0 
	-800 0 -23.360936 -12.090686 -800 0 -0.023087521 -179.46049 
4.53 -0.42438019 -71.140167 -800 0 -23.434222 144.6008 -800 0 
	-800 0 -0.32496113 -25.080923 -800 0 -23.356497 -12.400774 
	-23.434222 144.6008 -800 0 -0.025603879 -179.36366 -800 0 
	-800 0 -23.356497 -12.400774 -800 0 -0.023113824 -179.46759 
4.54 -0.4262932 -72.035581 -800 0 -23.422588 144.15104 -800 0 
	-800 0 -0.32593257 -25.691216 -800 0 -23.351914 -12.710189 
	-23.422588 144.15104 -800 0 -0.025670099 -179.36743 -800 0 
	-800 0 -23.351914 -12.710189 -800 0 -0.023139705 -179.47468 
4.55 -0.42749188 -72.931236 -800 0 -23.410638 143.70203 -800 0 
	-800 0 -0.32667847 -26.301572 -800 0 -23.347187 -13.018922 
	-23.410638 143.70203 -800 0 -0.025735928 -179.37119 -800 0 
	-800 0 -23.347187 -13.018922 -800 0 -0.023165159 -179.48176 
4.56 -0.42797529 -73.827044 -800 0 -23.398374 143.25377 -800 0 
	-800 0 -0.32719866 -26.91197 -800 0 -23.34232 -13.326966 
	-23.398374 143.25377 -800 0 -0.025801386 -179.37494 -800 0 
	-800 0 -23.34232 -13.326966 -800 0 -0.023190186 -179.48883 
4.57 -0.42774282 -74.722915 -800 0 -23.385796 142.80629 -800 0 
	-800 0 -0.32749301 -27.522392 -800 0 -23.337312 -13.634313 
	-23.385796 142.80629 -800 0 -0.025866493 -179.37867 -800 0 
	-800 0 -23.337312 -13.634313 -800 0 -0.023214782 -179.49589 
4.58 -0.42679423 -75.618758 -800 0 -23.372907 142.35961 -800 0 
	-800 0 -0.32756145 -28.132817 -800 0 -23.332166 -13.940954 
	-23.372907 142.35961 -800 0 -0.025931269 -179.38239 -800 0 
	-800 0 -23.332166 -13.940954 -800 0 -0.023238946 -179.50294 
4.59 -0.42512958 -76.514485 -800 0 -23.359707 141.91374 -800 0 
	-800 0 -0.32740391 -28.743225 -800 0 -23.326882 -14.246882 
	-23.359707 141.91374 -800 0 -0.025995732 -179.3861 -800 0 
	-800 0 -23.326882 -14.246882 -800 0 -0.023262675 -179.50997 
4.6 -0.4227493 -77.410005 -800 0 -23.3462 141.4687 -800 0 
	-800 0 -0.32702038 -29.353594 -800 0 -23.321463 -14.552088 
	-23.3462 141.4687 -800 0 -0.026059902 -179.38979 -800 0 
	-800 0 -23.321463 -14.552088 -800 0 -0.023285966 -179.517 
4.61 -0.42670939 -78.315595 -800 0 -23.336115 141.01273 -800 0 
	-800 0 -0.32860939 -29.972646 -800 0 -23.316736 -14.867645 
	-23.336115 141.01273 -800 0 -0.02612538 -179.39348 -800 0 
	-800 0 -23.316736 -14.867645 -800 0 -0.02331646 -179.52398 
4.62 -0.42992681 -79.22152 -800 0 -23.325698 140.55746 -800 0 
	-800 0 -0.32995984 -30.591753 -800 0 -23.311861 -15.182492 
	-23.325698 140.55746 -800 0 -0.026190477 -179.39715 -800 0 
	-800 0 -23.311861 -15.182492 -800 0 -0.023346534 -179.53095 
4.63 -0.4324 -80.127684 -800 0 -23.31495 140.10291 -800 0 
	-800 0 -0.33107146 -31.210892 -800 0 -23.30684 -15.496621 
	-23.31495 140.10291 -800 0 -0.026255214 -179.40081 -800 0 
	-800 0 -23.30684 -15.496621 -800 0 -0.023376187 -179.53791 
4.64 -0.43412774 -81.033994 -800 0 -23.303873 139.64909 -800 0 
	-800 0 -0.33194405 -31.83004 -800 0 -23.301675 -15.810022 
	-23.303873 139.64909 -800 0 -0.02631961 -179.40445 -800 0 
	-800 0 -23.301675 -15.810022 -800 0 -0.023405417 -179.54486 
4.65 -0.4351092 -81.940355 -800 0 -23.292467 139.19602 -800 0 
	-800 0 -0.33257742 -32.449175 -800 0 -23.296366 -16.122684 
	-23.292467 139.19602 -800 0 -0.026383688 -179.40809 -800 0 
	-800 0 -23.296366 -16.122684 -800 0 -0.02343422 -179.5518 
4.66 -0.43534392 -82.846672 -800 0 -23.280733 138.74372 -800 0 
	-800 0 -0.33297142 -33.068273 -800 0 -23.290916 -16.4346 
	-23.280733 138.74372 -800 0 -0.026447467 -179.41171 -800 0 
	-800 0 -23.290916 -16.4346 -800 0 -0.023462596 -179.55873 
4.67 -0.43483179 -83.752851 -800 0 -23.268673 138.29222 -800 0 
	-800 0 -0.33312596 -33.68731 -800 0 -23.285325 -16.745759 
	-23.268673 138.29222 -800 0 -0.026510969 -179.41532 -800 0 
	-800 0 -23.285325 -16.745759 -800 0 -0.023490541 -179.56565 
4.68 -0.4335731 -84.658797 -800 0 -23.256289 137.84152 -800 0 
	-800 0 -0.33304097 -34.306264 -800 0 -23.279595 -17.056152 
	-23.256289 137.84152 -800 0 -0.026574216 -179.41891 -800 0 
	-800 0 -23.279595 -17.056152 -800 0 -0.023518054 -179.57256 
4.69 -0.43156847 -85.564416 -800 0 -23.243581 137.39165 -800 0 
	-800 0 -0.33271644 -34.925109 -800 0 -23.273728 -17.365769 
	-23.243581 137.39165 -800 0 -0.026637227 -179.4225 -800 0 
	-800 0 -23.273728 -17.365769 -800 0 -0.023545132 -179.57947 
4.7 -0.42881892 -86.469615 -800 0 -23.23055 136.94262 -800 0 
	-800 0 -0.3321524 -35.543821 -800 0 -23.267724 -17.674601 
	-23.23055 136.94262 -800 0 -0.026700024 -179.42607 -800 0 
	-800 0 -23.267724 -17.674601 -800 0 -0.023571774 -179.58636 
4.71 -0.43252733 -87.383429 -800 0 -23.220895 136.48481 -800 0 
	-800 0 -0.33367758 -36.171756 -800 0 -23.262479 -17.99422 
	-23.220895 136.48481 -800 0 -0.026763552 -179.42964 -800 0 
	-800 0 -23.262479 -17.99422 -800 0 -0.02360582 -179.59321 
4.72 -0.43546291 -88.297403 -800 0 -23.210896 136.0277 -800 0 
	-800 0 -0.33494895 -36.799655 -800 0 -23.257085 -18.313066 
	-23.210896 136.0277 -800 0 -0.026826781 -179.43319 -800 0 
	-800 0 -23.257085 -18.313066 -800 0 -0.023639453 -179.60005 
4.73 -0.43762451 -89.211439 -800 0 -23.200553 135.5713 -800 0 
	-800 0 -0.33596626 -37.42749 -800 0 -23.251542 -18.63113 
	-23.200553 135.5713 -800 0 -0.026889734 -179.43674 -800 0 
	-800 0 -23.251542 -18.63113 -800 0 -0.023672673 -179.60688 
4.74 -0.43901137 -90.125439 -800 0 -23.189867 135.11565 -800 0 
	-800 0 -0.33672932 -38.055237 -800 0 -23.245853 -18.9484 
	-23.189867 135.11565 -800 0 -0.026952434 -179.44027 -800 0 
	-800 0 -23.245853 -18.9484 -800 0 -0.023705476 -179.6137 
4.75 -0.43962314 -91.039306 -800 0 -23.178839 134.66075 -800 0 
	-800 0 -0.33723799 -38.682867 -800 0 -23.240017 -19.264865 
	-23.178839 134.66075 -800 0 -0.027014901 -179.44379 -800 0 
	-800 0 -23.240017 -19.264865 -800 0 -0.023737862 -179.62052 
4.76 -0.43945985 -91.95294 -800 0 -23.167469 134.20663 -800 0 
	-800 0 -0.33749215 -39.310355 -800 0 -23.234038 -19.580515 
	-23.167469 134.20663 -800 0 -0.02707716 -179.4473 -800 0 
	-800 0 -23.234038 -19.580515 -800 0 -0.023769828 -179.62732 
4.77 -0.43852194 -92.866246 -800 0 -23.155759 133.75331 -800 0 
	-800 0 -0.33749176 -39.937672 -800 0 -23.227915 -19.895338 
	-23.155759 133.75331 -800 0 -0.027139233 -179.4508 -800 0 
	-800 0 -23.227915 -19.895338 -800 0 -0.023801373 -179.63412 
4.78 -0.4368102 -93.779127 -800 0 -23.14371 133.3008 -800 0 
	-800 0 -0.3372368 -40.564793 -800 0 -23.221651 -20.209324 
	-23.14371 133.3008 -800 0 -0.027201143 -179.45428 -800 0 
	-800 0 -23.221651 -20.209324 -800 0 -0.023832495 -179.64092 
4.79 -0.43432584 -94.691486 -800 0 -23.131321 132.84912 -800 0 
	-800 0 -0.33672733 -41.191689 -800 0 -23.215245 -20.522462 
	-23.131321 132.84912 -800 0 -0.027262912 -179.45776 -800 0 
	-800 0 -23.215245 -20.522462 -800 0 -0.023863192 -179.6477 
4.8 -0.43107044 -95.603228 -800 0 -23.118594 132.39829 -800 0 
	-800 0 -0.33596343 -41.818333 -800 0 -23.208701 -20.834741 
	-23.118594 132.39829 -800 0 -0.027324563 -179.46122 -800 0 
	-800 0 -23.208701 -20.834741 -800 0 -0.023893463 -179.65448 
4.81 -0.43428768 -96.524797 -800 0 -23.108987 131.93859 -800 0 
	-800 0 -0.33741469 -42.454597 -800 0 -23.202997 -21.158174 
	-23.108987 131.93859 -800 0 -0.027386972 -179.46469 -800 0 
	-800 0 -23.202997 -21.158174 -800 0 -0.023931174 -179.66121 
4.82 -0.43670183 -97.446373 -800 0 -23.099018 131.47959 -800 0 
	-800 0 -0.33859553 -43.090709 -800 0 -23.19714 -21.480763 
	-23.099018 131.47959 -800 0 -0.027449186 -179.46814 -800 0 
	-800 0 -23.19714 -21.480763 -800 0 -0.023968492 -179.66793 
4.83 -0.43831218 -98.367855 -800 0 -23.088688 131.02133 -800 0 
	-800 0 -0.33950578 -43.72664 -800 0 -23.191129 -21.802496 
	-23.088688 131.02133 -800 0 -0.027511229 -179.47158 -800 0 
	-800 0 -23.191129 -21.802496 -800 0 -0.024005414 -179.67464 
4.84 -0.43911845 -99.289143 -800 0 -23.077996 130.56381 -800 0 
	-800 0 -0.34014527 -44.36236 -800 0 -23.184967 -22.123362 
	-23.077996 130.56381 -800 0 -0.027573126 -179.47502 -800 0 
	-800 0 -23.184967 -22.123362 -800 0 -0.024041941 -179.68135 
4.85 -0.43912073 -100.21014 -800 0 -23.066944 130.10706 -800 0 
	-800 0 -0.34051392 -44.997839 -800 0 -23.178654 -22.443349 
	-23.066944 130.10706 -800 0 -0.027634901 -179.47844 -800 0 
	-800 0 -23.178654 -22.443349 -800 0 -0.02407807 -179.68805 
4.86 -0.43831958 -101.13074 -800 0 -23.055532 129.65109 -800 0 
	-800 0 -0.3406117 -45.633047 -800 0 -23.172191 -22.762444 
	-23.055532 129.65109 -800 0 -0.027696579 -179.48185 -800 0 
	-800 0 -23.172191 -22.762444 -800 0 -0.0241138 -179.69475 
4.87 -0.43671591 -102.05086 -800 0 -23.043761 129.19591 -800 0 
	-800 0 -0.34043862 -46.267955 -800 0 -23.16558 -23.080636 
	-23.043761 129.19591 -800 0 -0.027758184 -179.48525 -800 0 
	-800 0 -23.16558 -23.080636 -800 0 -0.024149132 -179.70144 
4.88 -0.43431108 -102.97039 -800 0 -23.03163 128.74156 -800 0 
	-800 0 -0.33999476 -46.902532 -800 0 -23.158821 -23.397912 
	-23.03163 128.74156 -800 0 -0.027819742 -179.48864 -800 0 
	-800 0 -23.158821 -23.397912 -800 0 -0.024184063 -179.70812 
4.89 -0.43110681 -103.88923 -800 0 -23.01914 128.28803 -800 0 
	-800 0 -0.33928024 -47.536749 -800 0 -23.151916 -23.714262 
	-23.01914 128.28803 -800 0 -0.027881276 -179.49202 -800 0 
	-800 0 -23.151916 -23.714262 -800 0 -0.024218593 -179.7148 
4.9 -0.42710525 -104.8073 -800 0 -23.006292 127.83536 -800 0 
	-800 0 -0.33829524 -48.170574 -800 0 -23.144865 -24.029672 
	-23.006292 127.83536 -800 0 -0.027942813 -179.49539 -800 0 
	-800 0 -23.144865 -24.029672 -800 0 -0.02425272 -179.72147 
4.91 -0.43002616 -105.73844 -800 0 -22.99667 127.3709 -800 0 
	-800 0 -0.34016793 -48.810349 -800 0 -23.139146 -24.355282 
	-22.99667 127.3709 -800 0 -0.028005598 -179.49876 -800 0 
	-800 0 -23.139146 -24.355282 -800 0 -0.024293829 -179.72808 
4.92 -0.4321123 -106.6695 -800 0 -22.986658 126.90714 -800 0 
	-800 0 -0.34175836 -49.449882 -800 0 -23.133266 -24.680004 
	-22.986658 126.90714 -800 0 -0.028068327 -179.50213 -800 0 
	-800 0 -23.133266 -24.680004 -800 0 -0.024334589 -179.73468 
4.93 -0.43336334 -107.60036 -800 0 -22.976257 126.44407 -800 0 
	-800 0 -0.34306632 -50.089141 -800 0 -23.127226 -25.003824 
	-22.976257 126.44407 -800 0 -0.028131024 -179.50548 -800 0 
	-800 0 -23.127226 -25.003824 -800 0 -0.024375003 -179.74127 
4.94 -0.43377939 -108.53094 -800 0 -22.965466 125.98172 -800 0 
	-800 0 -0.34409161 -50.728094 -800 0 -23.121028 -25.326729 
	-22.965466 125.98172 -800 0 -0.028193717 -179.50882 -800 0 
	-800 0 -23.121028 -25.326729 -800 0 -0.024415069 -179.74786 
4.95 -0.43336099 -109.46114 -800 0 -22.954287 125.52011 -800 0 
	-800 0 -0.34483414 -51.36671 -800 0 -23.114672 -25.648707 
	-22.954287 125.52011 -800 0 -0.028256431 -179.51216 -800 0 
	-800 0 -23.114672 -25.648707 -800 0 -0.024454788 -179.75445 
4.96 -0.43210909 -110.39085 -800 0 -22.942719 125.05925 -800 0 
	-800 0 -0.34529384 -52.004957 -800 0 -23.10816 -25.969745 
	-22.942719 125.05925 -800 0 -0.028319194 -179.51548 -800 0 
	-800 0 -23.10816 -25.969745 -800 0 -0.024494159 -179.76103 
4.97 -0.4300251 -111.31998 -800 0 -22.930762 124.59916 -800 0 
	-800 0 -0.34547071 -52.642803 -800 0 -23.101491 -26.289831 
	-22.930762 124.59916 -800 0 -0.028382032 -179.51879 -800 0 
	-800 0 -23.101491 -26.289831 -800 0 -0.024533183 -179.76761 
4.98 -0.4271108 -112.24844 -800 0 -22.918417 124.13986 -800 0 
	-800 0 -0.34536482 -53.280216 -800 0 -23.094667 -26.608951 
	-22.918417 124.13986 -800 0 -0.028444972 -179.5221 -800 0 
	-800 0 -23.094667 -26.608951 -800 0 -0.024571859 -179.77418 
4.99 -0.4233684 -113.17613 -800 0 -22.905683 123.68136 -800 0 
	-800 0 -0.34497627 -53.917166 -800 0 -23.087689 -26.927094 
	-22.905683 123.68136 -800 0 -0.028508042 -179.52539 -800 0 
	-800 0 -23.087689 -26.927094 -800 0 -0.024610188 -179.78074 
5 -0.41880052 -114.10296 -800 0 -22.892561 123.22367 -800 0 
	-800 0 -0.34430525 -54.55362 -800 0 -23.080557 -27.244247 
	-22.892561 123.22367 -800 0 -0.028571268 -179.52868 -800 0 
	-800 0 -23.080557 -27.244247 -800 0 -0.02464817 -179.7873 
5.01 -0.42183736 -115.03932 -800 0 -22.883378 122.75558 -800 0 
	-800 0 -0.34608514 -55.193812 -800 0 -23.074958 -27.568938 
	-22.883378 122.75558 -800 0 -0.028634661 -179.53197 -800 0 
	-800 0 -23.074958 -27.568938 -800 0 -0.024687238 -179.79384 
5.02 -0.4240197 -115.97557 -800 0 -22.873775 122.28808 -800 0 
	-800 0 -0.34757367 -55.833617 -800 0 -23.069191 -27.892685 
	-22.873775 122.28808 -800 0 -0.028698157 -179.53525 -800 0 
	-800 0 -23.069191 -27.892685 -800 0 -0.024726001 -179.80036 
5.03 -0.42534762 -116.91161 -800 0 -22.863753 121.82116 -800 0 
	-800 0 -0.34877074 -56.473004 -800 0 -23.063256 -28.215476 
	-22.863753 121.82116 -800 0 -0.028761785 -179.53853 -800 0 
	-800 0 -23.063256 -28.215476 -800 0 -0.024764459 -179.80689 
5.04 -0.42582161 -117.84735 -800 0 -22.853312 121.35485 -800 0 
	-800 0 -0.34967628 -57.111939 -800 0 -23.057153 -28.537298 
	-22.853312 121.35485 -800 0 -0.028825572 -179.54179 -800 0 
	-800 0 -23.057153 -28.537298 -800 0 -0.024802613 -179.81341 
5.05 -0.42544259 -118.78268 -800 0 -22.842452 120.88917 -800 0 
	-800 0 -0.35029026 -57.75039 -800 0 -23.050883 -28.858137 
	-22.842452 120.88917 -800 0 -0.028889548 -179.54504 -800 0 
	-800 0 -23.050883 -28.858137 -800 0 -0.024840465 -179.81993 
5.06 -0.42421191 -119.71753 -800 0 -22.831171 120.42413 -800 0 
	-800 0 -0.35061277 -58.388327 -800 0 -23.044446 -29.17798 
	-22.831171 120.42413 -800 0 -0.02895374 -179.54829 -800 0 
	-800 0 -23.044446 -29.17798 -800 0 -0.024878013 -179.82644 
5.07 -0.42213136 -120.65178 -800 0 -22.819471 119.95974 -800 0 
	-800 0 -0.3506439 -59.025715 -800 0 -23.037844 -29.496815 
	-22.819471 119.95974 -800 0 -0.029018176 -179.55152 -800 0 
	-800 0 -23.037844 -29.496815 -800 0 -0.024915261 -179.83295 
5.08 -0.41920312 -121.58536 -800 0 -22.807352 119.49602 -800 0 
	-800 0 -0.35038383 -59.662525 -800 0 -23.031076 -29.814627 
	-22.807352 119.49602 -800 0 -0.029082887 -179.55474 -800 0 
	-800 0 -23.031076 -29.814627 -800 0 -0.024952208 -179.83945 
5.09 -0.4154298 -122.51818 -800 0 -22.794812 119.03298 -800 0 
	-800 0 -0.34983281 -60.298723 -800 0 -23.024144 -30.131406 
	-22.794812 119.03298 -800 0 -0.0291479 -179.55796 -800 0 
	-800 0 -23.024144 -30.131406 -800 0 -0.024988856 -179.84596 
5.1 -0.41081438 -123.45013 -800 0 -22.781852 118.57063 -800 0 
	-800 0 -0.34899112 -60.934279 -800 0 -23.017047 -30.447137 
	-22.781852 118.57063 -800 0 -0.029213245 -179.56116 -800 0 
	-800 0 -23.017047 -30.447137 -800 0 -0.025025205 -179.85246 
5.11 -0.4141355 -124.38519 -800 0 -22.773342 118.10267 -800 0 
	-800 0 -0.35077139 -61.574389 -800 0 -23.011419 -30.771278 
	-22.773342 118.10267 -800 0 -0.029277023 -179.56438 -800 0 
	-800 0 -23.011419 -30.771278 -800 0 -0.025063498 -179.85891 
5.12 -0.41659795 -125.32018 -800 0 -22.764389 117.6351 -800 0 
	-800 0 -0.35224998 -62.213984 -800 0 -23.005611 -31.09442 
	-22.764389 117.6351 -800 0 -0.029341068 -179.56759 -800 0 
	-800 0 -23.005611 -31.09442 -800 0 -0.025101546 -179.86536 
5.13 -0.41820214 -126.255 -800 0 -22.754993 117.16794 -800 0 
	-800 0 -0.35342685 -62.853032 -800 0 -22.999624 -31.416552 
	-22.754993 117.16794 -800 0 -0.029405408 -179.5708 -800 0 
	-800 0 -22.999624 -31.416552 -800 0 -0.025139352 -179.87181 
5.14 -0.4189489 -127.18958 -800 0 -22.745154 116.70121 -800 0 
	-800 0 -0.35430202 -63.491499 -800 0 -22.993457 -31.737658 
	-22.745154 116.70121 -800 0 -0.029470074 -179.57399 -800 0 
	-800 0 -22.993457 -31.737658 -800 0 -0.025176918 -179.87826 
5.15 -0.41883947 -128.12381 -800 0 -22.73487 116.23492 -800 0 
	-800 0 -0.35487558 -64.129355 -800 0 -22.987112 -32.057726 
	-22.73487 116.23492 -800 0 -0.029535094 -179.57717 -800 0 
	-800 0 -22.987112 -32.057726 -800 0 -0.025214245 -179.8847 
5.16 -0.41787552 -129.05763 -800 0 -22.724142 115.76908 -800 0 
	-800 0 -0.35514767 -64.766567 -800 0 -22.980588 -32.376744 
	-22.724142 115.76908 -800 0 -0.029600498 -179.58034 -800 0 
	-800 0 -22.980588 -32.376744 -800 0 -0.025251336 -179.89114 
5.17 -0.41605913 -129.99093 -800 0 -22.712969 115.3037 -800 0 
	-800 0 -0.3551185 -65.403105 -800 0 -22.973885 -32.694697 
	-22.712969 115.3037 -800 0 -0.029666316 -179.5835 -800 0 
	-800 0 -22.973885 -32.694697 -800 0 -0.025288192 -179.89758 
5.18 -0.41339278 -130.92364 -800 0 -22.701351 114.8388 -800 0 
	-800 0 -0.35478835 -66.038935 -800 0 -22.967005 -33.011575 
	-22.701351 114.8388 -800 0 -0.029732576 -179.58665 -800 0 
	-800 0 -22.967005 -33.011575 -800 0 -0.025324815 -179.90402 
5.19 -0.40987934 -131.85567 -800 0 -22.689288 114.37438 -800 0 
	-800 0 -0.35415756 -66.674029 -800 0 -22.959947 -33.327363 
	-22.689288 114.37438 -800 0 -0.02979931 -179.58979 -800 0 
	-800 0 -22.959947 -33.327363 -800 0 -0.025361207 -179.91045 
5.2 -0.40552205 -132.78694 -800 0 -22.676779 113.91046 -800 0 
	-800 0 -0.3532265 -67.308353 -800 0 -22.952712 -33.64205 
	-22.676779 113.91046 -800 0 -0.029866546 -179.59292 -800 0 
	-800 0 -22.952712 -33.64205 -800 0 -0.025397371 -179.91689 
5.21 -0.40911623 -133.71995 -800 0 -22.668711 113.44323 -800 0 
	-800 0 -0.35509632 -67.948401 -800 0 -22.946861 -33.966202 
	-22.668711 113.44323 -800 0 -0.029931891 -179.59608 -800 0 
	-800 0 -22.946861 -33.966202 -800 0 -0.025436789 -179.92325 
5.22 -0.41185179 -134.65301 -800 0 -22.66018 112.97618 -800 0 
	-800 0 -0.35665219 -68.58783 -800 0 -22.940816 -34.289306 
	-22.66018 112.97618 -800 0 -0.029997664 -179.59923 -800 0 
	-800 0 -22.940816 -34.289306 -800 0 -0.025476049 -179.92962 
5.23 -0.41372938 -135.58604 -800 0 -22.651185 112.50932 -800 0 
	-800 0 -0.35789415 -69.226608 -800 0 -22.934578 -34.611346 
	-22.651185 112.50932 -800 0 -0.030063895 -179.60236 -800 0 
	-800 0 -22.934578 -34.611346 -800 0 -0.025515152 -179.93598 
5.24 -0.41475009 -136.51896 -800 0 -22.641725 112.04266 -800 0 
	-800 0 -0.35882227 -69.864704 -800 0 -22.928147 -34.932312 
	-22.641725 112.04266 -800 0 -0.030130614 -179.60549 -800 0 
	-800 0 -22.928147 -34.932312 -800 0 -0.025554102 -179.94235 
5.25 -0.41491536 -137.45169 -800 0 -22.6318 111.57621 -800 0 
	-800 0 -0.3594367 -70.502086 -800 0 -22.921523 -35.252189 
	-22.6318 111.57621 -800 0 -0.030197851 -179.6086 -800 0 
	-800 0 -22.921523 -35.252189 -800 0 -0.025592901 -179.94871 
5.26 -0.41422709 -138.38415 -800 0 -22.621408 111.10998 -800 0 
	-800 0 -0.35973766 -71.138723 -800 0 -22.914707 -35.570965 
	-22.621408 111.10998 -800 0 -0.030265634 -179.61171 -800 0 
	-800 0 -22.914707 -35.570965 -800 0 -0.025631553 -179.95507 
5.27 -0.41268753 -139.31626 -800 0 -22.610551 110.64397 -800 0 
	-800 0 -0.35972544 -71.774585 -800 0 -22.907697 -35.888629 
	-22.610551 110.64397 -800 0 -0.030333994 -179.6148 -800 0 
	-800 0 -22.907697 -35.888629 -800 0 -0.02567006 -179.96143 
5.28 -0.41029934 -140.24795 -800 0 -22.599226 110.17821 -800 0 
	-800 0 -0.35940037 -72.409642 -800 0 -22.900496 -36.205168 
	-22.599226 110.17821 -800 0 -0.030402961 -179.61789 -800 0 
	-800 0 -22.900496 -36.205168 -800 0 -0.025708426 -179.96779 
5.29 -0.40706556 -141.17914 -800 0 -22.587434 109.71269 -800 0 
	-800 0 -0.35876288 -73.043863 -800 0 -22.893102 -36.52057 
	-22.587434 109.71269 -800 0 -0.030472565 -179.62096 -800 0 
	-800 0 -22.893102 -36.52057 -800 0 -0.025746655 -179.97414 
5.3 -0.40298959 -142.10976 -800 0 -22.575175 109.24743 -800 0 
	-800 0 -0.35781342 -73.677219 -800 0 -22.885515 -36.834823 
	-22.575175 109.24743 -800 0 -0.030542835 -179.62403 -800 0 
	-800 0 -22.885515 -36.834823 -800 0 -0.025784748 -179.9805 
5.31 -0.40670614 -143.04261 -800 0 -22.567138 108.77985 -800 0 
	-800 0 -0.35980595 -74.317364 -800 0 -22.879257 -37.159353 
	-22.567138 108.77985 -800 0 -0.03061151 -179.62713 -800 0 
	-800 0 -22.879257 -37.159353 -800 0 -0.025827257 -179.98678 
5.32 -0.40956564 -143.97571 -800 0 -22.558619 108.31221 -800 0 
	-800 0 -0.36147041 -74.956814 -800 0 -22.87279 -37.482792 
	-22.558619 108.31221 -800 0 -0.030680769 -179.63022 -800 0 
	-800 0 -22.87279 -37.482792 -800 0 -0.025869714 -179.99305 
5.33 -0.41156893 -144.90899 -800 0 -22.549616 107.84449 -800 0 
	-800 0 -0.36280685 -75.595536 -800 0 -22.866115 -37.805127 
	-22.549616 107.84449 -800 0 -0.030750642 -179.63329 -800 0 
	-800 0 -22.866115 -37.805127 -800 0 -0.025912122 -179.99933 
5.34 -0.41271724 -145.84237 -800 0 -22.54013 107.37672 -800 0 
	-800 0 -0.36381542 -76.233503 -800 0 -22.859231 -38.126346 
	-22.54013 107.37672 -800 0 -0.03082116 -179.63636 -800 0 
	-800 0 -22.859231 -38.126346 -800 0 -0.025954486 179.9944 
5.35 -0.41301221 -146.77579 -800 0 -22.53016 106.90891 -800 0 
	-800 0 -0.36449632 -76.870682 -800 0 -22.852138 -38.446438 
	-22.53016 106.90891 -800 0 -0.03089235 -179.63942 -800 0 
	-800 0 -22.852138 -38.446438 -800 0 -0.02599681 179.98812 
5.36 -0.41245585 -147.70917 -800 0 -22.519705 106.44105 -800 0 
	-800 0 -0.36484983 -77.507045 -800 0 -22.844837 -38.765391 
	-22.519705 106.44105 -800 0 -0.030964242 -179.64246 -800 0 
	-800 0 -22.844837 -38.765391 -800 0 -0.026039099 179.98185 
5.37 -0.41105056 -148.64244 -800 0 -22.508764 105.97315 -800 0 
	-800 0 -0.36487628 -78.142563 -800 0 -22.837327 -39.083194 
	-22.508764 105.97315 -800 0 -0.031036866 -179.6455 -800 0 
	-800 0 -22.837327 -39.083194 -800 0 -0.026081356 179.97557 
5.38 -0.40879912 -149.57554 -800 0 -22.497339 105.50523 -800 0 
	-800 0 -0.36457608 -78.777206 -800 0 -22.829608 -39.399835 
	-22.497339 105.50523 -800 0 -0.031110252 -179.64852 -800 0 
	-800 0 -22.829608 -39.399835 -800 0 -0.026123586 179.9693 
5.39 -0.40570466 -150.50839 -800 0 -22.485427 105.03728 -800 0 
	-800 0 -0.3639497 -79.410947 -800 0 -22.821681 -39.715303 
	-22.485427 105.03728 -800 0 -0.031184428 -179.65154 -800 0 
	-800 0 -22.821681 -39.715303 -800 0 -0.026165793 179.96302 
5.4 -0.40177069 -151.44093 -800 0 -22.473029 104.56932 -800 0 
	-800 0 -0.36299767 -80.043757 -800 0 -22.813545 -40.029588 
	-22.473029 104.56932 -800 0 -0.031259425 -179.65454 -800 0 
	-800 0 -22.813545 -40.029588 -800 0 -0.026207982 179.95675 
5.41 -0.40542272 -152.37627 -800 0 -22.464599 104.09971 -800 0 
	-800 0 -0.36501476 -80.684715 -800 0 -22.806626 -40.355855 
	-22.464599 104.09971 -800 0 -0.031333629 -179.65758 -800 0 
	-800 0 -22.806626 -40.355855 -800 0 -0.026258055 179.95052 
5.42 -0.40822183 -153.31213 -800 0 -22.455671 103.62974 -800 0 
	-800 0 -0.36668857 -81.324924 -800 0 -22.799475 -40.681008 
	-22.455671 103.62974 -800 0 -0.031408561 -179.66062 -800 0 
	-800 0 -22.799475 -40.681008 -800 0 -0.0263082 179.94429 
5.43 -0.41016901 -154.24845 -800 0 -22.446245 103.15942 -800 0 
	-800 0 -0.36801924 -81.964355 -800 0 -22.792093 -41.005035 
	-22.446245 103.15942 -800 0 -0.03148425 -179.66364 -800 0 
	-800 0 -22.792093 -41.005035 -800 0 -0.026358422 179.93806 
5.44 -0.41126564 -155.18516 -800 0 -22.43632 102.68877 -800 0 
	-800 0 -0.36900698 -82.60298 -800 0 -22.78448 -41.327925 
	-22.43632 102.68877 -800 0 -0.031560726 -179.66665 -800 0 
	-800 0 -22.78448 -41.327925 -800 0 -0.026408727 179.93182 
5.45 -0.41151347 -156.12219 -800 0 -22.425896 102.21777 -800 0 
	-800 0 -0.36965206 -83.24077 -800 0 -22.776634 -41.649667 
	-22.425896 102.21777 -800 0 -0.031638016 -179.66965 -800 0 
	-800 0 -22.776634 -41.649667 -800 0 -0.026459121 179.92559 
5.46 -0.41091464 -157.05949 -800 0 -22.414972 101.74645 -800 0 
	-800 0 -0.36995483 -83.877699 -800 0 -22.768556 -41.970251 
	-22.414972 101.74645 -800 0 -0.031716149 -179.67264 -800 0 
	-800 0 -22.768556 -41.970251 -800 0 -0.026509609 179.91936 
5.47 -0.40947164 -157.99698 -800 0 -22.403549 101.2748 -800 0 
	-800 0 -0.3699157 -84.513739 -800 0 -22.760247 -42.289664 
	-22.403549 101.2748 -800 0 -0.031795154 -179.67562 -800 0 
	-800 0 -22.760247 -42.289664 -800 0 -0.026560197 179.91312 
5.48 -0.40718735 -158.9346 -800 0 -22.391626 100.80283 -800 0 
	-800 0 -0.36953516 -85.148863 -800 0 -22.751704 -42.607898 
	-22.391626 100.80283 -800 0 -0.031875059 -179.67858 -800 0 
	-800 0 -22.751704 -42.607898 -800 0 -0.02661089 179.90688 
5.49 -0.404065 -159.8723 -800 0 -22.379202 100.33054 -800 0 
	-800 0 -0.36881374 -85.783045 -800 0 -22.742929 -42.924942 
	-22.379202 100.33054 -800 0 -0.031955893 -179.68153 -800 0 
	-800 0 -22.742929 -42.924942 -800 0 -0.026661695 179.90064 
5.5 -0.40010815 -160.81001 -800 0 -22.366279 99.857944 -800 0 
	-800 0 -0.36775206 -86.416259 -800 0 -22.733922 -43.240785 
	-22.366279 99.857944 -800 0 -0.032037684 -179.68447 -800 0 
	-800 0 -22.733922 -43.240785 -800 0 -0.026712617 179.8944 
5.51 -0.40374216 -161.74881 -800 0 -22.357272 99.385139 -800 0 
	-800 0 -0.36964128 -87.054658 -800 0 -22.726475 -43.565319 
	-22.357272 99.385139 -800 0 -0.032119772 -179.68746 -800 0 
	-800 0 -22.726475 -43.565319 -800 0 -0.026765566 179.88821 
5.52 -0.40653644 -162.68847 -800 0 -22.34776 98.911663 -800 0 
	-800 0 -0.37117597 -87.692274 -800 0 -22.718776 -43.888737 
	-22.34776 98.911663 -800 0 -0.032202704 -179.69044 -800 0 
	-800 0 -22.718776 -43.888737 -800 0 -0.026818715 179.88201 
5.53 -0.40849205 -163.62894 -800 0 -22.337744 98.43752 -800 0 
	-800 0 -0.37235637 -88.329079 -800 0 -22.710826 -44.211029 
	-22.337744 98.43752 -800 0 -0.032286504 -179.6934 -800 0 
	-800 0 -22.710826 -44.211029 -800 0 -0.02687207 179.87581 
5.54 -0.40961044 -164.57016 -800 0 -22.327224 97.962713 -800 0 
	-800 0 -0.37318277 -88.965048 -800 0 -22.702623 -44.532184 
	-22.327224 97.962713 -800 0 -0.032371202 -179.69635 -800 0 
	-800 0 -22.702623 -44.532184 -800 0 -0.026925637 179.86961 
5.55 -0.40989341 -165.51206 -800 0 -22.316198 97.487245 -800 0 
	-800 0 -0.37365554 -89.600156 -800 0 -22.694168 -44.852192 
	-22.316198 97.487245 -800 0 -0.032456822 -179.69928 -800 0 
	-800 0 -22.694168 -44.852192 -800 0 -0.026979424 179.86341 
5.56 -0.40934314 -166.45459 -800 0 -22.304667 97.01112 -800 0 
	-800 0 -0.37377512 -90.234378 -800 0 -22.685459 -45.171043 
	-22.304667 97.01112 -800 0 -0.032543393 -179.70221 -800 0 
	-800 0 -22.685459 -45.171043 -800 0 -0.027033436 179.85721 
5.57 -0.40796216 -167.3977 -800 0 -22.292632 96.53434 -800 0 
	-800 0 -0.37354201 -90.86769 -800 0 -22.676498 -45.488728 
	-22.292632 96.53434 -800 0 -0.03263094 -179.70512 -800 0 
	-800 0 -22.676498 -45.488728 -800 0 -0.027087681 179.851 
5.58 -0.40575336 -168.34132 -800 0 -22.280092 96.056908 -800 0 
	-800 0 -0.37295676 -91.500067 -800 0 -22.667283 -45.805237 
	-22.280092 96.056908 -800 0 -0.032719491 -179.70802 -800 0 
	-800 0 -22.667283 -45.805237 -800 0 -0.027142165 179.84479 
5.59 -0.40271997 -169.28539 -800 0 -22.267047 95.578826 -800 0 
	-800 0 -0.37202 -92.131486 -800 0 -22.657815 -46.120561 
	-22.267047 95.578826 -800 0 -0.032809071 -179.7109 -800 0 
	-800 0 -22.657815 -46.120561 -800 0 -0.027196894 179.83858 
5.6 -0.39886558 -170.22988 -800 0 -22.253498 95.100095 -800 0 
	-800 0 -0.37073241 -92.761925 -800 0 -22.648093 -46.434691 
	-22.253498 95.100095 -800 0 -0.032899707 -179.71377 -800 0 
	-800 0 -22.648093 -46.434691 -800 0 -0.027251875 179.83236 
5.61 -0.40266378 -171.17216 -800 0 -22.243935 94.622951 -800 0 
	-800 0 -0.37258035 -93.397459 -800 0 -22.640201 -46.756948 
	-22.243935 94.622951 -800 0 -0.032992991 -179.71668 -800 0 
	-800 0 -22.640201 -46.756948 -800 0 -0.027300278 179.8263 
5.62 -0.4056491 -172.1157 -800 0 -22.233876 94.144773 -800 0 
	-800 0 -0.37406217 -94.032212 -800 0 -22.632047 -47.078076 
	-22.233876 94.144773 -800 0 -0.033087177 -179.71958 -800 0 
	-800 0 -22.632047 -47.078076 -800 0 -0.02734901 179.82023 
5.63 -0.40782268 -173.06045 -800 0 -22.223322 93.665564 -800 0 
	-800 0 -0.37517814 -94.666162 -800 0 -22.623632 -47.398066 
	-22.223322 93.665564 -800 0 -0.03318229 -179.72246 -800 0 
	-800 0 -22.623632 -47.398066 -800 0 -0.027398077 179.81417 
5.64 -0.40918602 -174.00634 -800 0 -22.212272 93.185324 -800 0 
	-800 0 -0.37592857 -95.299284 -800 0 -22.614954 -47.71691 
	-22.212272 93.185324 -800 0 -0.033278353 -179.72533 -800 0 
	-800 0 -22.614954 -47.71691 -800 0 -0.027447488 179.8081 
5.65 -0.40974097 -174.95332 -800 0 -22.200727 92.704056 -800 0 
	-800 0 -0.37631386 -95.931557 -800 0 -22.606013 -48.034599 
	-22.200727 92.704056 -800 0 -0.033375392 -179.72819 -800 0 
	-800 0 -22.606013 -48.034599 -800 0 -0.027497248 179.80202 
5.66 -0.40948974 -175.90135 -800 0 -22.188686 92.221759 -800 0 
	-800 0 -0.37633447 -96.562957 -800 0 -22.59681 -48.351125 
	-22.188686 92.221759 -800 0 -0.033473428 -179.73103 -800 0 
	-800 0 -22.59681 -48.351125 -800 0 -0.027547366 179.79595 
5.67 -0.4084349 -176.85038 -800 0 -22.176151 91.738435 -800 0 
	-800 0 -0.37599093 -97.193462 -800 0 -22.587344 -48.666481 
	-22.176151 91.738435 -800 0 -0.033572486 -179.73385 -800 0 
	-800 0 -22.587344 -48.666481 -800 0 -0.027597848 179.78987 
5.68 -0.40657936 -177.80034 -800 0 -22.163121 91.254085 -800 0 
	-800 0 -0.37528382 -97.82305 -800 0 -22.577614 -48.980659 
	-22.163121 91.254085 -800 0 -0.033672588 -179.73666 -800 0 
	-800 0 -22.577614 -48.980659 -800 0 -0.027648701 179.78379 
5.69 -0.40392637 -178.75119 -800 0 -22.149598 90.768709 -800 0 
	-800 0 -0.37421378 -98.451702 -800 0 -22.567622 -49.293651 
	-22.149598 90.768709 -800 0 -0.033773756 -179.73946 -800 0 
	-800 0 -22.567622 -49.293651 -800 0 -0.027699933 179.77771 
5.7 -0.40047953 -179.70288 -800 0 -22.135582 90.282307 -800 0 
	-800 0 -0.37278153 -99.079396 -800 0 -22.557366 -49.605449 
	-22.135582 90.282307 -800 0 -0.033876014 -179.74224 -800 0 
	-800 0 -22.557366 -49.605449 -800 0 -0.02775155 179.77162 
5.71 -0.40452334 179.35372 -800 0 -22.125879 89.79943 -800 0 
	-800 0 -0.37455151 -99.714254 -800 0 -22.548753 -49.927536 
	-22.125879 89.79943 -800 0 -0.033985727 -179.745 -800 0 
	-800 0 -22.548753 -49.927536 -800 0 -0.027801079 179.76566 
5.72 -0.4078025 178.40875 -800 0 -22.115723 89.315132 -800 0 
	-800 0 -0.37594174 -100.34837 -800 0 -22.539863 -50.248504 
	-22.115723 89.315132 -800 0 -0.034096269 -179.74774 -800 0 
	-800 0 -22.539863 -50.248504 -800 0 -0.027851078 179.7597 
5.73 -0.41031848 177.46224 -800 0 -22.105114 88.829412 -800 0 
	-800 0 -0.37695246 -100.98174 -800 0 -22.530697 -50.568346 
	-22.105114 88.829412 -800 0 -0.034207658 -179.75047 -800 0 
	-800 0 -22.530697 -50.568346 -800 0 -0.027901557 179.75373 
5.74 -0.41207313 176.51426 -800 0 -22.094052 88.342269 -800 0 
	-800 0 -0.37758401 -101.61432 -800 0 -22.521254 -50.887056 
	-22.094052 88.342269 -800 0 -0.034319912 -179.75318 -800 0 
	-800 0 -22.521254 -50.887056 -800 0 -0.027952523 179.74776 
5.75 -0.41306865 175.56485 -800 0 -22.082539 87.853702 -800 0 
	-800 0 -0.37783679 -102.24611 -800 0 -22.511534 -51.204627 
	-22.082539 87.853702 -800 0 -0.034433048 -179.75587 -800 0 
	-800 0 -22.511534 -51.204627 -800 0 -0.028003984 179.74179 
5.76 -0.41330758 174.61407 -800 0 -22.070575 87.363711 -800 0 
	-800 0 -0.37771126 -102.87707 -800 0 -22.501536 -51.521051 
	-22.070575 87.363711 -800 0 -0.034547082 -179.75855 -800 0 
	-800 0 -22.501536 -51.521051 -800 0 -0.028055947 179.73582 
5.77 -0.41279282 173.66196 -800 0 -22.05816 86.872293 -800 0 
	-800 0 -0.37720793 -103.5072 -800 0 -22.491261 -51.836322 
	-22.05816 86.872293 -800 0 -0.03466203 -179.76121 -800 0 
	-800 0 -22.491261 -51.836322 -800 0 -0.028108421 179.72984 
5.78 -0.41152762 172.70857 -800 0 -22.045297 86.379448 -800 0 
	-800 0 -0.37632739 -104.13646 -800 0 -22.480709 -52.150435 
	-22.045297 86.379448 -800 0 -0.034777908 -179.76385 -800 0 
	-800 0 -22.480709 -52.150435 -800 0 -0.028161413 179.72386 
5.79 -0.40951557 171.75396 -800 0 -22.031986 85.885174 -800 0 
	-800 0 -0.37507028 -104.76485 -800 0 -22.469878 -52.463383 
	-22.031986 85.885174 -800 0 -0.03489473 -179.76647 -800 0 
	-800 0 -22.469878 -52.463383 -800 0 -0.028214931 179.71788 
5.8 -0.4067606 170.79816 -800 0 -22.018228 85.38947 -800 0 
	-800 0 -0.3734373 -105.39234 -800 0 -22.458771 -52.77516 
	-22.018228 85.38947 -800 0 -0.035012512 -179.76908 -800 0 
	-800 0 -22.458771 -52.77516 -800 0 -0.028268984 179.71189 
5.81 -0.4083069 169.86201 -800 0 -22.009507 84.917361 -800 0 
	-800 0 -0.37493157 -106.02334 -800 0 -22.449319 -53.09414 
	-22.009507 84.917361 -800 0 -0.035090007 -179.77147 -800 0 
	-800 0 -22.449319 -53.09414 -800 0 -0.028329231 179.70586 
5.82 -0.40909332 168.92453 -800 0 -22.000426 84.444198 -800 0 
	-800 0 -0.37603904 -106.65368 -800 0 -22.439564 -53.412101 
	-22.000426 84.444198 -800 0 -0.035167836 -179.77384 -800 0 
	-800 0 -22.439564 -53.412101 -800 0 -0.02839011 179.69982 
5.83 -0.40912097 167.98578 -800 0 -21.990986 83.96998 -800 0 
	-800 0 -0.37676003 -107.28335 -800 0 -22.429503 -53.729038 
	-21.990986 83.96998 -800 0 -0.035246005 -179.77619 -800 0 
	-800 0 -22.429503 -53.729038 -800 0 -0.02845163 179.69379 
5.84 -0.40839128 167.04582 -800 0 -21.981189 83.494705 -800 0 
	-800 0 -0.3770949 -107.91231 -800 0 -22.419139 -54.044943 
	-21.981189 83.494705 -800 0 -0.035324519 -179.77853 -800 0 
	-800 0 -22.419139 -54.044943 -800 0 -0.0285138 179.68774 
5.85 -0.40690603 166.10471 -800 0 -21.971036 83.01837 -800 0 
	-800 0 -0.37704409 -108.54057 -800 0 -22.408469 -54.359809 
	-21.971036 83.01837 -800 0 -0.035403386 -179.78085 -800 0 
	-800 0 -22.408469 -54.359809 -800 0 -0.028576627 179.6817 
5.86 -0.40466735 165.16251 -800 0 -21.960529 82.540975 -800 0 
	-800 0 -0.37660807 -109.1681 -800 0 -22.397495 -54.673631 
	-21.960529 82.540975 -800 0 -0.035482609 -179.78315 -800 0 
	-800 0 -22.397495 -54.673631 -800 0 -0.028640122 179.67565 
5.87 -0.40167772 164.21927 -800 0 -21.94967 82.062516 -800 0 
	-800 0 -0.37578737 -109.79488 -800 0 -22.386215 -54.986401 
	-21.94967 82.062516 -800 0 -0.035562193 -179.78544 -800 0 
	-800 0 -22.386215 -54.986401 -800 0 -0.028704293 179.66959 
5.88 -0.39793996 163.27506 -800 0 -21.93846 81.582992 -800 0 
	-800 0 -0.3745826 -110.4209 -800 0 -22.374629 -55.298115 
	-21.93846 81.582992 -800 0 -0.035642142 -179.78771 -800 0 
	-800 0 -22.374629 -55.298115 -800 0 -0.028769149 179.66353 
5.89 -0.39345724 162.32992 -800 0 -21.926902 81.102401 -800 0 
	-800 0 -0.37299439 -111.04615 -800 0 -22.362739 -55.608765 
	-21.926902 81.102401 -800 0 -0.03572246 -179.78997 -800 0 
	-800 0 -22.362739 -55.608765 -800 0 -0.028834698 179.65747 
5.9 -0.38823305 161.38393 -800 0 -21.914998 80.62074 -800 0 
	-800 0 -0.37102342 -111.6706 -800 0 -22.350542 -55.918347 
	-21.914998 80.62074 -800 0 -0.035803148 -179.79221 -800 0 
	-800 0 -22.350542 -55.918347 -800 0 -0.02890095 179.6514 
5.91 -0.38829735 160.40505 -800 0 -21.90065 80.149244 -800 0 
	-800 0 -0.37230244 -112.2967 -800 0 -22.339984 -56.234705 
	-21.90065 80.149244 -800 0 -0.03585475 -179.79515 -800 0 
	-800 0 -22.339984 -56.234705 -800 0 -0.028975692 179.64528 
5.92 -0.38751239 159.42367 -800 0 -21.885779 79.676591 -800 0 
	-800 0 -0.37319307 -112.92229 -800 0 -22.329096 -56.550177 
	-21.885779 79.676591 -800 0 -0.035907344 -179.79808 -800 0 
	-800 0 -22.329096 -56.550177 -800 0 -0.029051245 179.63916 
5.93 -0.38587649 158.43982 -800 0 -21.870386 79.202786 -800 0 
	-800 0 -0.37369557 -113.54733 -800 0 -22.317876 -56.864755 
	-21.870386 79.202786 -800 0 -0.035960944 -179.80099 -800 0 
	-800 0 -22.317876 -56.864755 -800 0 -0.02912762 179.63303 
5.94 -0.3833883 157.45357 -800 0 -21.854475 78.727834 -800 0 
	-800 0 -0.37381027 -114.17182 -800 0 -22.306325 -57.178433 
	-21.854475 78.727834 -800 0 -0.036015566 -179.80389 -800 0 
	-800 0 -22.306325 -57.178433 -800 0 -0.029204829 179.62689 
5.95 -0.38004676 156.46495 -800 0 -21.838048 78.251738 -800 0 
	-800 0 -0.37353753 -114.79574 -800 0 -22.294443 -57.491204 
	-21.838048 78.251738 -800 0 -0.036071224 -179.80677 -800 0 
	-800 0 -22.294443 -57.491204 -800 0 -0.02928288 179.62075 
5.96 -0.37585112 155.47401 -800 0 -21.821106 77.774505 -800 0 
	-800 0 -0.37287777 -115.41909 -800 0 -22.282229 -57.803063 
	-21.821106 77.774505 -800 0 -0.036127932 -179.80963 -800 0 
	-800 0 -22.282229 -57.803063 -800 0 -0.029361784 179.61461 
5.97 -0.37080095 154.48081 -800 0 -21.803654 77.296136 -800 0 
	-800 0 -0.37183144 -116.04184 -800 0 -22.269682 -58.114002 
	-21.803654 77.296136 -800 0 -0.036185704 -179.81247 -800 0 
	-800 0 -22.269682 -58.114002 -800 0 -0.029441551 179.60846 
5.98 -0.36489611 153.4854 -800 0 -21.785693 76.816638 -800 0 
	-800 0 -0.37039905 -116.66398 -800 0 -22.256804 -58.424017 
	-21.785693 76.816638 -800 0 -0.036244553 -179.8153 -800 0 
	-800 0 -22.256804 -58.424017 -800 0 -0.029522192 179.6023 
5.99 -0.35813681 152.48782 -800 0 -21.767226 76.336012 -800 0 
	-800 0 -0.36858115 -117.28551 -800 0 -22.243592 -58.733101 
	-21.767226 76.336012 -800 0 -0.036304492 -179.81811 -800 0 
	-800 0 -22.243592 -58.733101 -800 0 -0.029603718 179.59615 
6 -0.35052356 151.48811 -800 0 -21.748256 75.854262 -800 0 
	-800 0 -0.36637831 -117.90641 -800 0 -22.230048 -59.041249 
	-21.748256 75.854262 -800 0 -0.036365534 -179.82091 -800 0 
	-800 0 -22.230048 -59.041249 -800 0 -0.029686138 179.58998 
6.01 -0.35375011 150.50127 -800 0 -21.734352 75.357088 -800 0 
	-800 0 -0.36761389 -118.53103 -800 0 -22.218258 -59.357772 
	-21.734352 75.357088 -800 0 -0.036484036 -179.82369 -800 0 
	-800 0 -22.218258 -59.357772 -800 0 -0.029772971 179.58385 
6.02 -0.35626767 149.51138 -800 0 -21.720003 74.857792 -800 0 
	-800 0 -0.36845646 -119.1553 -800 0 -22.206117 -59.673525 
	-21.720003 74.857792 -800 0 -0.036603345 -179.82645 -800 0 
	-800 0 -22.206117 -59.673525 -800 0 -0.029860806 179.57771 
6.03 -0.35807641 148.51847 -800 0 -21.705214 74.356377 -800 0 
	-800 0 -0.36890614 -119.77922 -800 0 -22.193626 -59.988502 
	-21.705214 74.356377 -800 0 -0.036723467 -179.82919 -800 0 
	-800 0 -22.193626 -59.988502 -800 0 -0.029949657 179.57157 
6.04 -0.35917685 147.5226 -800 0 -21.689984 73.852847 -800 0 
	-800 0 -0.36896309 -120.40277 -800 0 -22.180785 -60.302697 
	-21.689984 73.852847 -800 0 -0.036844408 -179.83191 -800 0 
	-800 0 -22.180785 -60.302697 -800 0 -0.030039534 179.56543 
6.05 -0.3595698 146.52379 -800 0 -21.674318 73.347207 -800 0 
	-800 0 -0.36862752 -121.02594 -800 0 -22.167592 -60.616104 
	-21.674318 73.347207 -800 0 -0.036966176 -179.83461 -800 0 
	-800 0 -22.167592 -60.616104 -800 0 -0.03013045 179.55928 
6.06 -0.35925637 145.5221 -800 0 -21.658216 72.839458 -800 0 
	-800 0 -0.36789968 -121.64872 -800 0 -22.154049 -60.928717 
	-21.658216 72.839458 -800 0 -0.037088773 -179.83729 -800 0 
	-800 0 -22.154049 -60.928717 -800 0 -0.030222417 179.55312 
6.07 -0.35823801 144.51757 -800 0 -21.641682 72.329607 -800 0 
	-800 0 -0.36677987 -122.2711 -800 0 -22.140154 -61.240531 
	-21.641682 72.329607 -800 0 -0.037212204 -179.83995 -800 0 
	-800 0 -22.140154 -61.240531 -800 0 -0.030315448 179.54696 
6.08 -0.35651648 143.51024 -800 0 -21.624718 71.817655 -800 0 
	-800 0 -0.36526841 -122.89308 -800 0 -22.125907 -61.55154 
	-21.624718 71.817655 -800 0 -0.037336472 -179.84258 -800 0 
	-800 0 -22.125907 -61.55154 -800 0 -0.030409553 179.54079 
6.09 -0.35409384 142.50014 -800 0 -21.607327 71.303609 -800 0 
	-800 0 -0.36336566 -123.51464 -800 0 -22.111309 -61.861738 
	-21.607327 71.303609 -800 0 -0.037461578 -179.8452 -800 0 
	-800 0 -22.111309 -61.861738 -800 0 -0.030504746 179.53462 
6.1 -0.3509725 141.48734 -800 0 -21.589512 70.787472 -800 0 
	-800 0 -0.36107202 -124.13576 -800 0 -22.096359 -62.171121 
	-21.589512 70.787472 -800 0 -0.037587524 -179.84779 -800 0 
	-800 0 -22.096359 -62.171121 -800 0 -0.03060104 179.52844 
6.11 -0.35450671 140.48762 -800 0 -21.576015 70.280133 -800 0 
	-800 0 -0.36225129 -124.7647 -800 0 -22.083231 -62.490378 
	-21.576015 70.280133 -800 0 -0.037714023 -179.85036 -800 0 
	-800 0 -22.083231 -62.490378 -800 0 -0.030697135 179.5223 
6.12 -0.35738007 139.48473 -800 0 -21.56215 69.770504 -800 0 
	-800 0 -0.36302391 -125.39349 -800 0 -22.069731 -62.808969 
	-21.56215 69.770504 -800 0 -0.037840985 -179.85291 -800 0 
	-800 0 -22.069731 -62.808969 -800 0 -0.030794428 179.51616 
6.13 -0.35959322 138.4787 -800 0 -21.547917 69.258589 -800 0 
	-800 0 -0.36338981 -126.02212 -800 0 -22.05586 -63.126889 
	-21.547917 69.258589 -800 0 -0.037968406 -179.85544 -800 0 
	-800 0 -22.05586 -63.126889 -800 0 -0.030892932 179.51002 
6.14 -0.3611471 137.46959 -800 0 -21.533321 68.744393 -800 0 
	-800 0 -0.36334896 -126.6506 -800 0 -22.041618 -63.444132 
	-21.533321 68.744393 -800 0 -0.03809628 -179.85795 -800 0 
	-800 0 -22.041618 -63.444132 -800 0 -0.03099266 179.50387 
6.15 -0.36204297 136.45745 -800 0 -21.518364 68.227923 -800 0 
	-800 0 -0.36290138 -127.27891 -800 0 -22.027003 -63.760692 
	-21.518364 68.227923 -800 0 -0.038224599 -179.86043 -800 0 
	-800 0 -22.027003 -63.760692 -800 0 -0.031093628 179.49771 
6.16 -0.36228242 135.44233 -800 0 -21.503049 67.709185 -800 0 
	-800 0 -0.36204711 -127.90703 -800 0 -22.012016 -64.076562 
	-21.503049 67.709185 -800 0 -0.038353358 -179.86289 -800 0 
	-800 0 -22.012016 -64.076562 -800 0 -0.031195848 179.49155 
6.17 -0.3618674 134.42427 -800 0 -21.487378 67.188183 -800 0 
	-800 0 -0.36078624 -128.53497 -800 0 -21.996657 -64.391738 
	-21.487378 67.188183 -800 0 -0.038482545 -179.86533 -800 0 
	-800 0 -21.996657 -64.391738 -800 0 -0.031299335 179.48538 
6.18 -0.36080015 133.40334 -800 0 -21.471356 66.664927 -800 0 
	-800 0 -0.3591189 -129.16271 -800 0 -21.980926 -64.706213 
	-21.471356 66.664927 -800 0 -0.038612151 -179.86774 -800 0 
	-800 0 -21.980926 -64.706213 -800 0 -0.031404102 179.47921 
6.19 -0.35908327 132.37957 -800 0 -21.454986 66.139421 -800 0 
	-800 0 -0.35704522 -129.79025 -800 0 -21.964823 -65.019983 
	-21.454986 66.139421 -800 0 -0.038742164 -179.87013 -800 0 
	-800 0 -21.964823 -65.019983 -800 0 -0.031510165 179.47303 
6.2 -0.3567197 131.35303 -800 0 -21.43827 65.611675 -800 0 
	-800 0 -0.35456541 -130.41757 -800 0 -21.948346 -65.333041 
	-21.43827 65.611675 -800 0 -0.038872573 -179.87249 -800 0 
	-800 0 -21.948346 -65.333041 -800 0 -0.031617538 179.46684 
6.21 -0.36032723 130.33467 -800 0 -21.424711 65.094012 -800 0 
	-800 0 -0.35627624 -131.05736 -800 0 -21.933917 -65.658525 
	-21.424711 65.094012 -800 0 -0.03900308 -179.87492 -800 0 
	-800 0 -21.933917 -65.658525 -800 0 -0.031732483 179.46067 
6.22 -0.36330865 129.31299 -800 0 -21.41084 64.573964 -800 0 
	-800 0 -0.35755616 -131.6973 -800 0 -21.919089 -65.983521 
	-21.41084 64.573964 -800 0 -0.039133708 -179.87732 -800 0 
	-800 0 -21.919089 -65.983521 -800 0 -0.031848885 179.4545 
6.23 -0.36566473 128.28804 -800 0 -21.396661 64.051539 -800 0 
	-800 0 -0.35840474 -132.33738 -800 0 -21.903863 -66.308022 
	-21.396661 64.051539 -800 0 -0.039264442 -179.8797 -800 0 
	-800 0 -21.903863 -66.308022 -800 0 -0.031966762 179.44833 
6.24 -0.36739661 127.25989 -800 0 -21.382177 63.526745 -800 0 
	-800 0 -0.35882165 -132.9776 -800 0 -21.888238 -66.632023 
	-21.382177 63.526745 -800 0 -0.039395266 -179.88205 -800 0 
	-800 0 -21.888238 -66.632023 -800 0 -0.032086129 179.44215 
6.25 -0.36850572 126.2286 -800 0 -21.367391 62.999593 -800 0 
	-800 0 -0.35880655 -133.61794 -800 0 -21.872214 -66.955518 
	-21.367391 62.999593 -800 0 -0.039526162 -179.88438 -800 0 
	-800 0 -21.872214 -66.955518 -800 0 -0.032207005 179.43596 
6.26 -0.36899385 125.19421 -800 0 -21.352307 62.470093 -800 0 
	-800 0 -0.35835918 -134.25839 -800 0 -21.855791 -67.278498 
	-21.352307 62.470093 -800 0 -0.039657113 -179.88669 -800 0 
	-800 0 -21.855791 -67.278498 -800 0 -0.032329406 179.42976 
6.27 -0.36886313 124.1568 -800 0 -21.336928 61.938255 -800 0 
	-800 0 -0.35747927 -134.89894 -800 0 -21.838969 -67.600959 
	-21.336928 61.938255 -800 0 -0.039788099 -179.88897 -800 0 
	-800 0 -21.838969 -67.600959 -800 0 -0.032453351 179.42356 
6.28 -0.36811601 123.11641 -800 0 -21.321257 61.40409 -800 0 
	-800 0 -0.35616665 -135.53959 -800 0 -21.821748 -67.922895 
	-21.321257 61.40409 -800 0 -0.0399191 -179.89122 -800 0 
	-800 0 -21.821748 -67.922895 -800 0 -0.032578856 179.41735 
6.29 -0.36675531 122.07312 -800 0 -21.305299 60.867609 -800 0 
	-800 0 -0.35442113 -136.18033 -800 0 -21.804127 -68.244299 
	-21.305299 60.867609 -800 0 -0.040050092 -179.89346 -800 0 
	-800 0 -21.804127 -68.244299 -800 0 -0.03270594 179.41114 
6.3 -0.36478419 121.02698 -800 0 -21.289058 60.328825 -800 0 
	-800 0 -0.35224258 -136.82115 -800 0 -21.786107 -68.565165 
	-21.289058 60.328825 -800 0 -0.040181054 -179.89566 -800 0 
	-800 0 -21.786107 -68.565165 -800 0 -0.032834622 179.40492 
6.31 -0.36836819 119.98795 -800 0 -21.275414 59.800362 -800 0 
	-800 0 -0.35388727 -137.47105 -800 0 -21.77011 -68.897787 
	-21.275414 59.800362 -800 0 -0.040315422 -179.89795 -800 0 
	-800 0 -21.77011 -68.897787 -800 0 -0.032960416 179.39872 
6.32 -0.37135981 118.94554 -800 0 -21.261515 59.269467 -800 0 
	-800 0 -0.35508538 -138.12137 -800 0 -21.753689 -69.23005 
	-21.261515 59.269467 -800 0 -0.040449528 -179.90021 -800 0 
	-800 0 -21.753689 -69.23005 -800 0 -0.033087898 179.39251 
6.33 -0.37376005 117.89981 -800 0 -21.247366 58.736154 -800 0 
	-800 0 -0.35583623 -138.77211 -800 0 -21.736844 -69.561948 
	-21.247366 58.736154 -800 0 -0.04058335 -179.90245 -800 0 
	-800 0 -21.736844 -69.561948 -800 0 -0.03321709 179.38629 
6.34 -0.37557025 116.85084 -800 0 -21.232969 58.200437 -800 0 
	-800 0 -0.35613918 -139.42324 -800 0 -21.719575 -69.893473 
	-21.232969 58.200437 -800 0 -0.040716861 -179.90466 -800 0 
	-800 0 -21.719575 -69.893473 -800 0 -0.03334801 179.38007 
6.35 -0.37679211 115.79868 -800 0 -21.218329 57.662329 -800 0 
	-800 0 -0.3559936 -140.07476 -800 0 -21.701882 -70.224618 
	-21.218329 57.662329 -800 0 -0.040850036 -179.90685 -800 0 
	-800 0 -21.701882 -70.224618 -800 0 -0.033480678 179.37384 
6.36 -0.37742765 114.74341 -800 0 -21.203449 57.121845 -800 0 
	-800 0 -0.35539892 -140.72666 -800 0 -21.683764 -70.555376 
	-21.203449 57.121845 -800 0 -0.040982846 -179.90901 -800 0 
	-800 0 -21.683764 -70.555376 -800 0 -0.033615116 179.36761 
6.37 -0.37747924 113.68509 -800 0 -21.188334 56.579001 -800 0 
	-800 0 -0.35435461 -141.37893 -800 0 -21.665222 -70.885739 
	-21.188334 56.579001 -800 0 -0.041115263 -179.91114 -800 0 
	-800 0 -21.665222 -70.885739 -800 0 -0.033751342 179.36137 
6.38 -0.3769496 112.62379 -800 0 -21.172986 56.033812 -800 0 
	-800 0 -0.35286015 -142.03158 -800 0 -21.646256 -71.2157 
	-21.172986 56.033812 -800 0 -0.041247257 -179.91326 -800 0 
	-800 0 -21.646256 -71.2157 -800 0 -0.03388938 179.35512 
6.39 -0.3758418 111.55958 -800 0 -21.15741 55.486297 -800 0 
	-800 0 -0.35091508 -142.68457 -800 0 -21.626865 -71.545253 
	-21.15741 55.486297 -800 0 -0.041378796 -179.91534 -800 0 
	-800 0 -21.626865 -71.545253 -800 0 -0.034029249 179.34887 
6.4 -0.37415926 110.49253 -800 0 -21.14161 54.93647 -800 0 
	-800 0 -0.34851895 -143.33792 -800 0 -21.607049 -71.874391 
	-21.14161 54.93647 -800 0 -0.041509849 -179.9174 -800 0 
	-800 0 -21.607049 -71.874391 -800 0 -0.034170972 179.34261 
6.41 -0.37763781 109.432 -800 0 -21.128018 54.396915 -800 0 
	-800 0 -0.35017458 -143.99173 -800 0 -21.589642 -72.207494 
	-21.128018 54.396915 -800 0 -0.041647476 -179.91955 -800 0 
	-800 0 -21.589642 -72.207494 -800 0 -0.034336286 179.33608 
6.42 -0.38055742 108.36813 -800 0 -21.11423 53.854939 -800 0 
	-800 0 -0.35138092 -144.64626 -800 0 -21.571776 -72.540609 
	-21.11423 53.854939 -800 0 -0.041784416 -179.92166 -800 0 
	-800 0 -21.571776 -72.540609 -800 0 -0.034503658 179.32955 
6.43 -0.38291944 107.301 -800 0 -21.100251 53.31056 -800 0 
	-800 0 -0.35213724 -145.30148 -800 0 -21.553451 -72.873729 
	-21.100251 53.31056 -800 0 -0.041920637 -179.92376 -800 0 
	-800 0 -21.553451 -72.873729 -800 0 -0.034673117 179.323 
6.44 -0.38472556 106.23069 -800 0 -21.086082 52.763797 -800 0 
	-800 0 -0.35244281 -145.95741 -800 0 -21.534667 -73.206845 
	-21.086082 52.763797 -800 0 -0.042056104 -179.92583 -800 0 
	-800 0 -21.534667 -73.206845 -800 0 -0.034844688 179.31645 
6.45 -0.38597782 105.15727 -800 0 -21.071729 52.21467 -800 0 
	-800 0 -0.35229694 -146.61402 -800 0 -21.515423 -73.539948 
	-21.071729 52.21467 -800 0 -0.042190785 -179.92787 -800 0 
	-800 0 -21.515423 -73.539948 -800 0 -0.035018401 179.3099 
6.46 -0.38667858 104.08083 -800 0 -21.057195 51.663197 -800 0 
	-800 0 -0.351699 -147.27132 -800 0 -21.495717 -73.87303 
	-21.057195 51.663197 -800 0 -0.042324643 -179.92988 -800 0 
	-800 0 -21.495717 -73.87303 -800 0 -0.035194284 179.30333 
6.47 -0.3868306 103.00143 -800 0 -21.042485 51.109402 -800 0 
	-800 0 -0.35064837 -147.9293 -800 0 -21.47555 -74.206083 
	-21.042485 51.109402 -800 0 -0.042457642 -179.93188 -800 0 
	-800 0 -21.47555 -74.206083 -800 0 -0.035372366 179.29675 
6.48 -0.38643693 101.91916 -800 0 -21.027601 50.553304 -800 0 
	-800 0 -0.34914446 -148.58795 -800 0 -21.454921 -74.539099 
	-21.027601 50.553304 -800 0 -0.042589743 -179.93384 -800 0 
	-800 0 -21.454921 -74.539099 -800 0 -0.035552677 179.29017 
6.49 -0.38550103 100.8341 -800 0 -21.012549 49.994926 -800 0 
	-800 0 -0.34718672 -149.24727 -800 0 -21.433828 -74.872069 
	-21.012549 49.994926 -800 0 -0.04272091 -179.93578 -800 0 
	-800 0 -21.433828 -74.872069 -800 0 -0.035735247 179.28358 
6.5 -0.38402668 99.746335 -800 0 -20.997332 49.43429 -800 0 
	-800 0 -0.34477462 -149.90725 -800 0 -21.412272 -75.204985 
	-20.997332 49.43429 -800 0 -0.0428511 -179.93769 -800 0 
	-800 0 -21.412272 -75.204985 -800 0 -0.035920107 179.27697 
6.51 -0.38739701 98.662939 -800 0 -20.984056 48.882295 -800 0 
	-800 0 -0.34626862 -150.55869 -800 0 -21.392805 -75.540192 
	-20.984056 48.882295 -800 0 -0.042990574 -179.93968 -800 0 
	-800 0 -21.392805 -75.540192 -800 0 -0.036100277 179.27068 
6.52 -0.39024147 97.576386 -800 0 -20.970643 48.327947 -800 0 
	-800 0 -0.34733711 -151.21116 -800 0 -21.372909 -75.87547 
	-20.970643 48.327947 -800 0 -0.043128884 -179.94164 -800 0 
	-800 0 -21.372909 -75.87547 -800 0 -0.03628273 179.26438 
6.53 -0.39256191 96.486761 -800 0 -20.957097 47.77127 -800 0 
	-800 0 -0.34797877 -151.86464 -800 0 -21.352584 -76.210812 
	-20.957097 47.77127 -800 0 -0.043265993 -179.94358 -800 0 
	-800 0 -21.352584 -76.210812 -800 0 -0.036467494 179.25807 
6.54 -0.39436055 95.394149 -800 0 -20.94342 47.212288 -800 0 
	-800 0 -0.34819231 -152.51914 -800 0 -21.331829 -76.546213 
	-20.94342 47.212288 -800 0 -0.043401858 -179.94549 -800 0 
	-800 0 -21.331829 -76.546213 -800 0 -0.036654599 179.25175 
6.55 -0.39563994 94.298636 -800 0 -20.929616 46.651027 -800 0 
	-800 0 -0.34797644 -153.17466 -800 0 -21.310645 -76.881668 
	-20.929616 46.651027 -800 0 -0.043536441 -179.94738 -800 0 
	-800 0 -21.310645 -76.881668 -800 0 -0.036844077 179.24543 
6.56 -0.396403 93.200311 -800 0 -20.915691 46.087512 -800 0 
	-800 0 -0.34732992 -153.83118 -800 0 -21.28903 -77.217171 
	-20.915691 46.087512 -800 0 -0.043669699 -179.94924 -800 0 
	-800 0 -21.28903 -77.217171 -800 0 -0.037035957 179.2391 
6.57 -0.39665297 92.099262 -800 0 -20.901646 45.52177 -800 0 
	-800 0 -0.34625153 -154.48871 -800 0 -21.266985 -77.552716 
	-20.901646 45.52177 -800 0 -0.043801589 -179.95107 -800 0 
	-800 0 -21.266985 -77.552716 -800 0 -0.03723027 179.23276 
6.58 -0.39639348 90.99558 -800 0 -20.887487 44.953828 -800 0 
	-800 0 -0.34474006 -155.14723 -800 0 -21.244509 -77.888299 
	-20.887487 44.953828 -800 0 -0.043932068 -179.95288 -800 0 
	-800 0 -21.244509 -77.888299 -800 0 -0.037427049 179.22642 
6.59 -0.39562848 89.889353 -800 0 -20.873217 44.383714 -800 0 
	-800 0 -0.34279433 -155.80676 -800 0 -21.221603 -78.223914 
	-20.873217 44.383714 -800 0 -0.044061092 -179.95466 -800 0 
	-800 0 -21.221603 -78.223914 -800 0 -0.037626326 179.22007 
6.6 -0.39436228 88.780674 -800 0 -20.85884 43.811458 -800 0 
	-800 0 -0.34041319 -156.46728 -800 0 -21.198264 -78.559556 
	-20.85884 43.811458 -800 0 -0.044188616 -179.95642 -800 0 
	-800 0 -21.198264 -78.559556 -800 0 -0.037828135 179.21371 
6.61 -0.39780854 87.672672 -800 0 -20.846359 43.243942 -800 0 
	-800 0 -0.34182343 -157.12199 -800 0 -21.177192 -78.894277 
	-20.846359 43.243942 -800 0 -0.044327673 -179.95822 -800 0 
	-800 0 -21.177192 -78.894277 -800 0 -0.037985629 179.20784 
6.62 -0.40076538 86.56184 -800 0 -20.833801 42.674199 -800 0 
	-800 0 -0.34281512 -157.77804 -800 0 -21.155738 -79.228923 
	-20.833801 42.674199 -800 0 -0.044465012 -179.95999 -800 0 
	-800 0 -21.155738 -79.228923 -800 0 -0.038145313 179.20195 
6.63 -0.40323545 85.448273 -800 0 -20.821169 42.10226 -800 0 
	-800 0 -0.34338597 -158.4354 -800 0 -21.133903 -79.563492 
	-20.821169 42.10226 -800 0 -0.044600589 -179.96174 -800 0 
	-800 0 -21.133903 -79.563492 -800 0 -0.038307211 179.19607 
6.64 -0.40522175 84.332068 -800 0 -20.808466 41.528155 -800 0 
	-800 0 -0.3435337 -159.09409 -800 0 -21.111689 -79.897981 
	-20.808466 41.528155 -800 0 -0.044734358 -179.96346 -800 0 
	-800 0 -21.111689 -79.897981 -800 0 -0.038471347 179.19018 
6.65 -0.40672762 83.213323 -800 0 -20.795696 40.951915 -800 0 
	-800 0 -0.34325604 -159.75409 -800 0 -21.089094 -80.232385 
	-20.795696 40.951915 -800 0 -0.044866274 -179.96516 -800 0 
	-800 0 -21.089094 -80.232385 -800 0 -0.038637745 179.18429 
6.66 -0.40775676 82.092136 -800 0 -20.782863 40.373574 -800 0 
	-800 0 -0.34255075 -160.4154 -800 0 -21.066119 -80.566703 
	-20.782863 40.373574 -800 0 -0.04499629 -179.96683 -800 0 
	-800 0 -21.066119 -80.566703 -800 0 -0.038806432 179.17839 
6.67 -0.40831321 80.968606 -800 0 -20.76997 39.793163 -800 0 
	-800 0 -0.34141561 -161.07801 -800 0 -21.042766 -80.900931 
	-20.76997 39.793163 -800 0 -0.04512436 -179.96848 -800 0 
	-800 0 -21.042766 -80.900931 -800 0 -0.038977433 179.17249 
6.68 -0.40840134 79.842832 -800 0 -20.75702 39.210716 -800 0 
	-800 0 -0.33984839 -161.74192 -800 0 -21.019033 -81.235066 
	-20.75702 39.210716 -800 0 -0.045250437 -179.9701 -800 0 
	-800 0 -21.019033 -81.235066 -800 0 -0.039150775 179.16658 
6.69 -0.4080259 78.714915 -800 0 -20.744017 38.626267 -800 0 
	-800 0 -0.33784691 -162.40713 -800 0 -20.994923 -81.569107 
	-20.744017 38.626267 -800 0 -0.045374473 -179.9717 -800 0 
	-800 0 -20.994923 -81.569107 -800 0 -0.039326483 179.16067 
6.7 -0.40719193 77.584955 -800 0 -20.730965 38.039852 -800 0 
	-800 0 -0.33540899 -163.07363 -800 0 -20.970434 -81.90305 
	-20.730965 38.039852 -800 0 -0.045496421 -179.97327 -800 0 
	-800 0 -20.970434 -81.90305 -800 0 -0.039504585 179.15475 
6.71 -0.41181314 76.449267 -800 0 -20.720954 37.448571 -800 0 
	-800 0 -0.33766437 -163.76193 -800 0 -20.948459 -82.256727 
	-20.720954 37.448571 -800 0 -0.045625825 -179.97476 -800 0 
	-800 0 -20.948459 -82.256727 -800 0 -0.039708483 179.14855 
6.72 -0.41599428 75.31137 -800 0 -20.71094 36.855301 -800 0 
	-800 0 -0.33945581 -164.45195 -800 0 -20.926043 -82.610765 
	-20.71094 36.855301 -800 0 -0.04575269 -179.97623 -800 0 
	-800 0 -20.926043 -82.610765 -800 0 -0.039915126 179.14234 
6.73 -0.41973921 74.171374 -800 0 -20.700928 36.260081 -800 0 
	-800 0 -0.34078081 -165.1437 -800 0 -20.903187 -82.965158 
	-20.700928 36.260081 -800 0 -0.045876968 -179.97767 -800 0 
	-800 0 -20.903187 -82.965158 -800 0 -0.04012455 179.13612 
6.74 -0.4230521 73.02939 -800 0 -20.690918 35.66295 -800 0 
	-800 0 -0.34163691 -165.83717 -800 0 -20.879891 -83.3199 
	-20.690918 35.66295 -800 0 -0.045998612 -179.97909 -800 0 
	-800 0 -20.879891 -83.3199 -800 0 -0.040336791 179.1299 
6.75 -0.4259375 71.88553 -800 0 -20.680915 35.063945 -800 0 
	-800 0 -0.34202165 -166.53234 -800 0 -20.856153 -83.674985 
	-20.680915 35.063945 -800 0 -0.046117574 -179.98048 -800 0 
	-800 0 -20.856153 -83.674985 -800 0 -0.040551885 179.12368 
6.76 -0.42840027 70.739905 -800 0 -20.670922 34.463108 -800 0 
	-800 0 -0.34193265 -167.22922 -800 0 -20.831974 -84.030407 
	-20.670922 34.463108 -800 0 -0.046233805 -179.98185 -800 0 
	-800 0 -20.831974 -84.030407 -800 0 -0.04076987 179.11745 
6.77 -0.43044562 69.592627 -800 0 -20.66094 33.860479 -800 0 
	-800 0 -0.34136752 -167.92779 -800 0 -20.807354 -84.38616 
	-20.66094 33.860479 -800 0 -0.046347259 -179.9832 -800 0 
	-800 0 -20.807354 -84.38616 -800 0 -0.040990784 179.11122 
6.78 -0.43207909 68.443808 -800 0 -20.650974 33.256099 -800 0 
	-800 0 -0.34032394 -168.62805 -800 0 -20.782292 -84.742239 
	-20.650974 33.256099 -800 0 -0.046457889 -179.98452 -800 0 
	-800 0 -20.782292 -84.742239 -800 0 -0.041214665 179.10498 
6.79 -0.43330655 67.293559 -800 0 -20.641025 32.65001 -800 0 
	-800 0 -0.33879959 -169.32998 -800 0 -20.756789 -85.098637 
	-20.641025 32.65001 -800 0 -0.046565647 -179.98582 -800 0 
	-800 0 -20.756789 -85.098637 -800 0 -0.041441553 179.09874 
6.8 -0.43413418 66.141993 -800 0 -20.631097 32.042254 -800 0 
	-800 0 -0.33679222 -170.0336 -800 0 -20.730844 -85.455349 
	-20.631097 32.042254 -800 0 -0.046670487 -179.9871 -800 0 
	-800 0 -20.730844 -85.455349 -800 0 -0.041671487 179.09249 
6.81 -0.44593621 65.011662 -800 0 -20.634079 31.464092 -800 0 
	-800 0 -0.33859785 -170.72866 -800 0 -20.70723 -85.811335 
	-20.634079 31.464092 -800 0 -0.046666257 -179.98832 -800 0 
	-800 0 -20.70723 -85.811335 -800 0 -0.041899582 179.08627 
6.82 -0.45719283 63.880557 -800 0 -20.63709 30.88507 -800 0 
	-800 0 -0.33995096 -171.42571 -800 0 -20.683188 -86.167839 
	-20.63709 30.88507 -800 0 -0.046658863 -179.98952 -800 0 
	-800 0 -20.683188 -86.167839 -800 0 -0.042130687 179.08005 
6.83 -0.46790563 62.748817 -800 0 -20.640131 30.305231 -800 0 
	-800 0 -0.34084876 -172.12475 -800 0 -20.658716 -86.524856 
	-20.640131 30.305231 -800 0 -0.046648298 -179.99071 -800 0 
	-800 0 -20.658716 -86.524856 -800 0 -0.042364842 179.07382 
6.84 -0.47807665 61.616578 -800 0 -20.643203 29.724615 -800 0 
	-800 0 -0.34128849 -172.82577 -800 0 -20.633816 -86.882382 
	-20.643203 29.724615 -800 0 -0.046634555 -179.99189 -800 0 
	-800 0 -20.633816 -86.882382 -800 0 -0.042602088 179.06759 
6.85 -0.48770835 60.483976 -800 0 -20.646304 29.143264 -800 0 
	-800 0 -0.34126741 -173.52876 -800 0 -20.608486 -87.240411 
	-20.646304 29.143264 -800 0 -0.046617629 -179.99306 -800 0 
	-800 0 -20.608486 -87.240411 -800 0 -0.042842466 179.06135 
6.86 -0.49680361 59.351148 -800 0 -20.649436 28.561219 -800 0 
	-800 0 -0.34078283 -174.23373 -800 0 -20.582727 -87.598938 
	-20.649436 28.561219 -800 0 -0.046597514 -179.99422 -800 0 
	-800 0 -20.582727 -87.598938 -800 0 -0.043086017 179.05512 
6.87 -0.50536574 58.218229 -800 0 -20.652599 27.978521 -800 0 
	-800 0 -0.33983206 -174.94065 -800 0 -20.556538 -87.95796 
	-20.652599 27.978521 -800 0 -0.046574208 -179.99538 -800 0 
	-800 0 -20.556538 -87.95796 -800 0 -0.043332785 179.04887 
6.88 -0.51339847 57.085355 -800 0 -20.655793 27.395212 -800 0 
	-800 0 -0.33841247 -175.64954 -800 0 -20.52992 -88.317471 
	-20.655793 27.395212 -800 0 -0.046547708 -179.99652 -800 0 
	-800 0 -20.52992 -88.317471 -800 0 -0.043582812 179.04262 
6.89 -0.52090593 55.952659 -800 0 -20.659017 26.811333 -800 0 
	-800 0 -0.33652145 -176.36037 -800 0 -20.502871 -88.677468 
	-20.659017 26.811333 -800 0 -0.046518013 -179.99765 -800 0 
	-800 0 -20.502871 -88.677468 -800 0 -0.043836144 179.03637 
6.9 -0.52789266 54.820275 -800 0 -20.662273 26.226927 -800 0 
	-800 0 -0.33415641 -177.07316 -800 0 -20.475393 -89.037946 
	-20.662273 26.226927 -800 0 -0.046485123 -179.99877 -800 0 
	-800 0 -20.475393 -89.037946 -800 0 -0.044092824 179.03011 
6.91 -0.52648661 53.717086 -800 0 -20.647936 25.729634 -800 0 
	-800 0 -0.33641519 -177.78278 -800 0 -20.449822 -89.403402 
	-20.647936 25.729634 -800 0 -0.046582051 179.99873 -800 0 
	-800 0 -20.449822 -89.403402 -800 0 -0.044356403 179.0239 
6.92 -0.52446618 52.61173 -800 0 -20.633478 25.231067 -800 0 
	-800 0 -0.3382332 -178.49479 -800 0 -20.423832 -89.769564 
	-20.633478 25.231067 -800 0 -0.046677337 179.99625 -800 0 
	-800 0 -20.423832 -89.769564 -800 0 -0.044623387 179.01769 
6.93 -0.52183062 51.504311 -800 0 -20.6189 24.73126 -800 0 
	-800 0 -0.3396071 -179.2092 -800 0 -20.397421 -90.13643 
	-20.6189 24.73126 -800 0 -0.046770972 179.99378 -800 0 
	-800 0 -20.397421 -90.13643 -800 0 -0.044893822 179.01147 
6.94 -0.51857953 50.39493 -800 0 -20.604204 24.230247 -800 0 
	-800 0 -0.3405336 -179.926 -800 0 -20.370589 -90.503998 
	-20.604204 24.230247 -800 0 -0.046862946 179.99133 -800 0 
	-800 0 -20.370589 -90.503998 -800 0 -0.045167756 179.00525 
6.95 -0.51471286 49.283692 -800 0 -20.589389 23.728062 -800 0 
	-800 0 -0.34100942 179.35482 -800 0 -20.343336 -90.872262 
	-20.589389 23.728062 -800 0 -0.04695325 179.98888 -800 0 
	-800 0 -20.343336 -90.872262 -800 0 -0.045445236 178.99902 
6.96 -0.51023088 48.170699 -800 0 -20.574457 23.22474 -800 0 
	-800 0 -0.3410313 178.63325 -800 0 -20.315663 -91.241221 
	-20.574457 23.22474 -800 0 -0.047041872 179.98645 -800 0 
	-800 0 -20.315663 -91.241221 -800 0 -0.04572631 178.99279 
6.97 -0.50513419 47.056056 -800 0 -20.559409 22.720316 -800 0 
	-800 0 -0.34059601 177.9093 -800 0 -20.287568 -91.610871 
	-20.559409 22.720316 -800 0 -0.047128803 179.98404 -800 0 
	-800 0 -20.287568 -91.610871 -800 0 -0.046011028 178.98656 
6.98 -0.49942375 45.939865 -800 0 -20.544245 22.214826 -800 0 
	-800 0 -0.33970035 177.18296 -800 0 -20.259051 -91.98121 
	-20.544245 22.214826 -800 0 -0.047214034 179.98164 -800 0 
	-800 0 -20.259051 -91.98121 -800 0 -0.046299441 178.98033 
6.99 -0.49310082 44.822232 -800 0 -20.528967 21.708305 -800 0 
	-800 0 -0.33834113 176.45426 -800 0 -20.230113 -92.352236 
	-20.528967 21.708305 -800 0 -0.047297553 179.97925 -800 0 
	-800 0 -20.230113 -92.352236 -800 0 -0.0465916 178.97409 
7 -0.48616701 43.703259 -800 0 -20.513576 21.200788 -800 0 
	-800 0 -0.3365152 175.72318 -800 0 -20.200753 -92.723944 
	-20.513576 21.200788 -800 0 -0.04737935 179.97687 -800 0 
	-800 0 -20.200753 -92.723944 -800 0 -0.046887558 178.96785 
7.01 -0.48744169 42.524666 -800 0 -20.502665 20.59652 -800 0 
	-800 0 -0.33868564 175.00236 -800 0 -20.173469 -93.093816 
	-20.502665 20.59652 -800 0 -0.04751489 179.97544 -800 0 
	-800 0 -20.173469 -93.093816 -800 0 -0.047184584 178.96156 
7.02 -0.4883443 41.344923 -800 0 -20.491795 19.990787 -800 0 
	-800 0 -0.34042874 174.27883 -800 0 -20.145773 -93.464571 
	-20.491795 19.990787 -800 0 -0.04764746 179.97404 -800 0 
	-800 0 -20.145773 -93.464571 -800 0 -0.047485389 178.95527 
7.03 -0.48888024 40.164135 -800 0 -20.480967 19.383633 -800 0 
	-800 0 -0.34174089 173.5526 -800 0 -20.117665 -93.836205 
	-20.480967 19.383633 -800 0 -0.04777703 179.97265 -800 0 
	-800 0 -20.117665 -93.836205 -800 0 -0.047790024 178.94898 
7.04 -0.48905522 38.982408 -800 0 -20.470181 18.775103 -800 0 
	-800 0 -0.34261844 172.82366 -800 0 -20.089145 -94.208717 
	-20.470181 18.775103 -800 0 -0.04790357 179.97128 -800 0 
	-800 0 -20.089145 -94.208717 -800 0 -0.048098544 178.94268 
7.05 -0.48887514 37.799844 -800 0 -20.45944 18.16524 -800 0 
	-800 0 -0.3430578 172.09201 -800 0 -20.060212 -94.582106 
	-20.45944 18.16524 -800 0 -0.048027052 179.96992 -800 0 
	-800 0 -20.060212 -94.582106 -800 0 -0.048411003 178.93638 
7.06 -0.48834617 36.616546 -800 0 -20.448742 17.554089 -800 0 
	-800 0 -0.34305538 171.35765 -800 0 -20.030866 -94.95637 
	-20.448742 17.554089 -800 0 -0.048147447 179.96859 -800 0 
	-800 0 -20.030866 -94.95637 -800 0 -0.048727457 178.93008 
7.07 -0.48747471 35.432617 -800 0 -20.43809 16.941696 -800 0 
	-800 0 -0.34260761 170.62059 -800 0 -20.001107 -95.331507 
	-20.43809 16.941696 -800 0 -0.048264727 179.96727 -800 0 
	-800 0 -20.001107 -95.331507 -800 0 -0.049047963 178.92377 
7.08 -0.48626737 34.248157 -800 0 -20.427482 16.328106 -800 0 
	-800 0 -0.34171094 169.88081 -800 0 -19.970935 -95.707517 
	-20.427482 16.328106 -800 0 -0.048378867 179.96597 -800 0 
	-800 0 -19.970935 -95.707517 -800 0 -0.049372578 178.91747 
7.09 -0.48473095 33.063265 -800 0 -20.416921 15.713364 -800 0 
	-800 0 -0.34036183 169.13833 -800 0 -19.940349 -96.084397 
	-20.416921 15.713364 -800 0 -0.048489841 179.96468 -800 0 
	-800 0 -19.940349 -96.084397 -800 0 -0.049701361 178.91116 
7.1 -0.48287248 31.878039 -800 0 -20.406406 15.097517 -800 0 
	-800 0 -0.33855679 168.39314 -800 0 -19.90935 -96.462148 
	-20.406406 15.097517 -800 0 -0.048597623 179.96342 -800 0 
	-800 0 -19.90935 -96.462148 -800 0 -0.050034372 178.90485 
7.11 -0.4885676 30.692138 -800 0 -20.403236 14.488766 -800 0 
	-800 0 -0.33943865 167.64443 -800 0 -19.880864 -96.84361 
	-20.403236 14.488766 -800 0 -0.048660184 179.96224 -800 0 
	-800 0 -19.880864 -96.84361 -800 0 -0.050357159 178.89864 
7.12 -0.49386778 29.506364 -800 0 -20.400142 13.879344 -800 0 
	-800 0 -0.33986322 166.89287 -800 0 -19.851972 -97.226085 
	-20.400142 13.879344 -800 0 -0.04871912 179.96107 -800 0 
	-800 0 -19.851972 -97.226085 -800 0 -0.050684034 178.89242 
7.13 -0.49877826 28.320833 -800 0 -20.397125 13.269294 -800 0 
	-800 0 -0.33982681 166.13846 -800 0 -19.822675 -97.609572 
	-20.397125 13.269294 -800 0 -0.04877443 179.95991 -800 0 
	-800 0 -19.822675 -97.609572 -800 0 -0.051015054 178.88621 
7.14 -0.50330452 27.135663 -800 0 -20.394182 12.658663 -800 0 
	-800 0 -0.33932577 165.3812 -800 0 -19.792972 -97.994069 
	-20.394182 12.658663 -800 0 -0.048826112 179.95876 -800 0 
	-800 0 -19.792972 -97.994069 -800 0 -0.051350277 178.88 
7.15 -0.50745232 25.950968 -800 0 -20.391313 12.047497 -800 0 
	-800 0 -0.33835648 164.6211 -800 0 -19.762863 -98.379576 
	-20.391313 12.047497 -800 0 -0.048874166 179.95762 -800 0 
	-800 0 -19.762863 -98.379576 -800 0 -0.051689759 178.87378 
7.16 -0.51122768 24.76686 -800 0 -20.388517 11.435841 -800 0 
	-800 0 -0.33691538 163.85817 -800 0 -19.732348 -98.766092 
	-20.388517 11.435841 -800 0 -0.048918593 179.95649 -800 0 
	-800 0 -19.732348 -98.766092 -800 0 -0.052033561 178.86757 
7.17 -0.51463688 23.583451 -800 0 -20.385791 10.82374 -800 0 
	-800 0 -0.33499894 163.0924 -800 0 -19.701426 -99.153616 
	-20.385791 10.82374 -800 0 -0.048959395 179.95537 -800 0 
	-800 0 -19.701426 -99.153616 -800 0 -0.052381743 178.86136 
7.18 -0.51768643 22.40085 -800 0 -20.383136 10.211242 -800 0 
	-800 0 -0.33260367 162.3238 -800 0 -19.670098 -99.542147 
	-20.383136 10.211242 -800 0 -0.048996576 179.95426 -800 0 
	-800 0 -19.670098 -99.542147 -800 0 -0.052734365 178.85515 
7.19 -0.52038304 21.219163 -800 0 -20.380549 9.5983895 -800 0 
	-800 0 -0.32972615 161.55237 -800 0 -19.638363 -99.931685 
	-20.380549 9.5983895 -800 0 -0.049030142 179.95315 -800 0 
	-800 0 -19.638363 -99.931685 -800 0 -0.05309149 178.84894 
7.2 -0.52273366 20.038494 -800 0 -20.378029 8.9852298 -800 0 
	-800 0 -0.32636298 160.77813 -800 0 -19.606221 -100.32223 
	-20.378029 8.9852298 -800 0 -0.0490601 179.95206 -800 0 
	-800 0 -19.606221 -100.32223 -800 0 -0.053453182 178.84273 
7.21 -0.53223094 18.875803 -800 0 -20.380252 8.4106532 -800 0 
	-800 0 -0.32861137 159.99371 -800 0 -19.576221 -100.72589 
	-20.380252 8.4106532 -800 0 -0.049053476 179.95066 -800 0 
	-800 0 -19.576221 -100.72589 -800 0 -0.053824465 178.83658 
7.22 -0.54123655 17.713747 -800 0 -20.382496 7.8360626 -800 0 
	-800 0 -0.33039541 159.2059 -800 0 -19.545818 -101.13083 
	-20.382496 7.8360626 -800 0 -0.049043746 179.94926 -800 0 
	-800 0 -19.545818 -101.13083 -800 0 -0.054200369 178.83043 
7.23 -0.54975348 16.552443 -800 0 -20.384759 7.2614964 -800 0 
	-800 0 -0.33171075 158.41468 -800 0 -19.515013 -101.53703 
	-20.384759 7.2614964 -800 0 -0.049030932 179.94787 -800 0 
	-800 0 -19.515013 -101.53703 -800 0 -0.054580956 178.82429 
7.24 -0.55778502 15.392001 -800 0 -20.387039 6.6869928 -800 0 
	-800 0 -0.33255306 157.62008 -800 0 -19.483805 -101.94451 
	-20.387039 6.6869928 -800 0 -0.049015057 179.94647 -800 0 
	-800 0 -19.483805 -101.94451 -800 0 -0.05496629 178.81816 
7.25 -0.56533481 14.232534 -800 0 -20.389333 6.1125897 -800 0 
	-800 0 -0.33291808 156.82208 -800 0 -19.452195 -102.35326 
	-20.389333 6.1125897 -800 0 -0.048996144 179.94508 -800 0 
	-800 0 -19.452195 -102.35326 -800 0 -0.055356434 178.81202 
7.26 -0.57240675 13.07415 -800 0 -20.391639 5.538325 -800 0 
	-800 0 -0.33280158 156.02068 -800 0 -19.420182 -102.76328 
	-20.391639 5.538325 -800 0 -0.048974216 179.9437 -800 0 
	-800 0 -19.420182 -102.76328 -800 0 -0.055751453 178.80589 
7.27 -0.57900509 11.916957 -800 0 -20.393955 4.9642361 -800 0 
	-800 0 -0.3321994 155.2159 -800 0 -19.387766 -103.17457 
	-20.393955 4.9642361 -800 0 -0.0489493 179.94231 -800 0 
	-800 0 -19.387766 -103.17457 -800 0 -0.056151415 178.79977 
7.28 -0.58513432 10.761058 -800 0 -20.396278 4.3903604 -800 0 
	-800 0 -0.3311074 154.40774 -800 0 -19.354948 -103.58714 
	-20.396278 4.3903604 -800 0 -0.048921421 179.94092 -800 0 
	-800 0 -19.354948 -103.58714 -800 0 -0.056556385 178.79365 
7.29 -0.59079924 9.6065576 -800 0 -20.398605 3.8167349 -800 0 
	-800 0 -0.32952154 153.59619 -800 0 -19.321727 -104.00099 
	-20.398605 3.8167349 -800 0 -0.048890604 179.93954 -800 0 
	-800 0 -19.321727 -104.00099 -800 0 -0.056966433 178.78753 
7.3 -0.59600491 8.453556 -800 0 -20.400935 3.2433966 -800 0 
	-800 0 -0.32743782 152.78126 -800 0 -19.288104 -104.41611 
	-20.400935 3.2433966 -800 0 -0.048856878 179.93816 -800 0 
	-800 0 -19.288104 -104.41611 -800 0 -0.057381627 178.78142 
7.31 -0.60265762 7.3238945 -800 0 -20.399777 2.703896 -800 0 
	-800 0 -0.33320164 151.97596 -800 0 -19.258959 -104.83087 
	-20.399777 2.703896 -800 0 -0.048869336 179.93635 -800 0 
	-800 0 -19.258959 -104.83087 -800 0 -0.057782692 178.77531 
7.32 -0.60881743 6.1945975 -800 0 -20.398568 2.1644032 -800 0 
	-800 0 -0.3385276 151.16667 -800 0 -19.229433 -105.2472 
	-20.398568 2.1644032 -800 0 -0.048879383 179.93454 -800 0 
	-800 0 -19.229433 -105.2472 -800 0 -0.058188554 178.76921 
7.33 -0.61448615 5.0657555 -800 0 -20.397304 1.6249516 -800 0 
	-800 0 -0.34341044 150.35338 -800 0 -19.199527 -105.66508 
	-20.397304 1.6249516 -800 0 -0.04888704 179.93274 -800 0 
	-800 0 -19.199527 -105.66508 -800 0 -0.058599273 178.76311 
7.34 -0.61966584 3.9374573 -800 0 -20.395984 1.0855744 -800 0 
	-800 0 -0.34784494 149.53609 -800 0 -19.16924 -106.08454 
	-20.395984 1.0855744 -800 0 -0.048892327 179.93094 -800 0 
	-800 0 -19.16924 -106.08454 -800 0 -0.059014911 178.75702 
7.35 -0.62435876 2.8097904 -800 0 -20.394606 0.54630507 -800 0 
	-800 0 -0.3518259 148.7148 -800 0 -19.138572 -106.50556 
	-20.394606 0.54630507 -800 0 -0.048895266 179.92914 -800 0 
	-800 0 -19.138572 -106.50556 -800 0 -0.059435531 178.75094 
7.36 -0.62856742 1.6828411 -800 0 -20.393166 0.0071765799 -800 0 
	-800 0 -0.35534815 147.88951 -800 0 -19.107523 -106.92815 
	-20.393166 0.0071765799 -800 0 -0.048895877 179.92734 -800 0 
	-800 0 -19.107523 -106.92815 -800 0 -0.059861195 178.74486 
7.37 -0.63229457 0.5566939 -800 0 -20.391662 -0.53177801 -800 0 
	-800 0 -0.35840659 147.06021 -800 0 -19.076092 -107.35231 
	-20.391662 -0.53177801 -800 0 -0.048894183 179.92554 -800 0 
	-800 0 -19.076092 -107.35231 -800 0 -0.060291968 178.73879 
7.38 -0.63554312 -0.56856793 -800 0 -20.390093 -1.0705258 -800 0 
	-800 0 -0.36099612 146.22691 -800 0 -19.044281 -107.77805 
	-20.390093 -1.0705258 -800 0 -0.048890206 179.92374 -800 0 
	-800 0 -19.044281 -107.77805 -800 0 -0.060727913 178.73273 
7.39 -0.63831623 -1.6928629 -800 0 -20.388455 -1.6090339 -800 0 
	-800 0 -0.36311172 145.3896 -800 0 -19.012088 -108.20536 
	-20.388455 -1.6090339 -800 0 -0.048883967 179.92195 -800 0 
	-800 0 -19.012088 -108.20536 -800 0 -0.061169096 178.72668 
7.4 -0.64061722 -2.8161111 -800 0 -20.386746 -2.1472698 -800 0 
	-800 0 -0.36474842 144.54828 -800 0 -18.979515 -108.63426 
	-20.386746 -2.1472698 -800 0 -0.04887549 179.92015 -800 0 
	-800 0 -18.979515 -108.63426 -800 0 -0.061615584 178.72064 
7.41 -0.6435984 -3.9513632 -800 0 -20.382454 -2.7003489 -800 0 
	-800 0 -0.36794798 143.71636 -800 0 -18.94754 -109.05979 
	-20.382454 -2.7003489 -800 0 -0.048925898 179.91842 -800 0 
	-800 0 -18.94754 -109.05979 -800 0 -0.06206979 178.71464 
7.42 -0.64616655 -5.0860912 -800 0 -20.378103 -3.2535203 -800 0 
	-800 0 -0.3707009 142.88034 -800 0 -18.915209 -109.48694 
	-20.378103 -3.2535203 -800 0 -0.048974027 179.91668 -800 0 
	-800 0 -18.915209 -109.48694 -800 0 -0.062529277 178.70866 
7.43 -0.64832463 -6.2202252 -800 0 -20.37369 -3.806752 -800 0 
	-800 0 -0.37300218 142.04024 -800 0 -18.882524 -109.91569 
	-20.37369 -3.806752 -800 0 -0.049019895 179.91495 -800 0 
	-800 0 -18.882524 -109.91569 -800 0 -0.062994109 178.70269 
7.44 -0.65007576 -7.3536964 -800 0 -20.369212 -4.3600119 -800 0 
	-800 0 -0.37484691 141.19604 -800 0 -18.849485 -110.34607 
	-20.369212 -4.3600119 -800 0 -0.049063524 179.91322 -800 0 
	-800 0 -18.849485 -110.34607 -800 0 -0.06346435 178.69673 
7.45 -0.65142317 -8.486438 -800 0 -20.364667 -4.9132682 -800 0 
	-800 0 -0.37623019 140.34776 -800 0 -18.816091 -110.77806 
	-20.364667 -4.9132682 -800 0 -0.049104936 179.9115 -800 0 
	-800 0 -18.816091 -110.77806 -800 0 -0.063940063 178.69078 
7.46 -0.65237023 -9.6183846 -800 0 -20.360051 -5.4664888 -800 0 
	-800 0 -0.3771472 139.49537 -800 0 -18.782344 -111.21169 
	-20.360051 -5.4664888 -800 0 -0.049144152 179.90977 -800 0 
	-800 0 -18.782344 -111.21169 -800 0 -0.064421314 178.68484 
7.47 -0.65292039 -10.749472 -800 0 -20.355362 -6.0196421 -800 0 
	-800 0 -0.37759316 138.63889 -800 0 -18.748243 -111.64694 
	-20.355362 -6.0196421 -800 0 -0.049181195 179.90805 -800 0 
	-800 0 -18.748243 -111.64694 -800 0 -0.064908167 178.67892 
7.48 -0.65307723 -11.87964 -800 0 -20.350597 -6.5726963 -800 0 
	-800 0 -0.37756336 137.77831 -800 0 -18.713789 -112.08384 
	-20.350597 -6.5726963 -800 0 -0.049216087 179.90633 -800 0 
	-800 0 -18.713789 -112.08384 -800 0 -0.06540069 178.673 
7.49 -0.65284439 -13.008826 -800 0 -20.345754 -7.1256196 -800 0 
	-800 0 -0.37705318 136.91363 -800 0 -18.678983 -112.52238 
	-20.345754 -7.1256196 -800 0 -0.049248851 179.90461 -800 0 
	-800 0 -18.678983 -112.52238 -800 0 -0.065898948 178.6671 
7.5 -0.65222563 -14.136972 -800 0 -20.34083 -7.6783804 -800 0 
	-800 0 -0.37605802 136.04486 -800 0 -18.643826 -112.96257 
	-20.34083 -7.6783804 -800 0 -0.049279511 179.90289 -800 0 
	-800 0 -18.643826 -112.96257 -800 0 -0.066403008 178.66122 
7.51 -0.65492086 -15.28163 -800 0 -20.337321 -8.2448695 -800 0 
	-800 0 -0.38019852 135.18319 -800 0 -18.610962 -113.41077 
	-20.337321 -8.2448695 -800 0 -0.049330293 179.9013 -800 0 
	-800 0 -18.610962 -113.41077 -800 0 -0.066939433 178.65525 
7.52 -0.65724627 -16.425316 -800 0 -20.333757 -8.811322 -800 0 
	-800 0 -0.38392784 134.31703 -800 0 -18.577754 -113.86094 
	-20.333757 -8.811322 -800 0 -0.049378783 179.89971 -800 0 
	-800 0 -18.577754 -113.86094 -800 0 -0.067481896 178.64931 
7.53 -0.65920573 -17.567972 -800 0 -20.330133 -9.3777078 -800 0 
	-800 0 -0.38724174 133.4464 -800 0 -18.544203 -114.31309 
	-20.330133 -9.3777078 -800 0 -0.049425008 179.89812 -800 0 
	-800 0 -18.544203 -114.31309 -800 0 -0.068030462 178.64338 
7.54 -0.66080318 -18.709539 -800 0 -20.326448 -9.9439972 -800 0 
	-800 0 -0.39013602 132.57127 -800 0 -18.510309 -114.76723 
	-20.326448 -9.9439972 -800 0 -0.049468995 179.89653 -800 0 
	-800 0 -18.510309 -114.76723 -800 0 -0.068585197 178.63746 
7.55 -0.66204266 -19.849961 -800 0 -20.322698 -10.51016 -800 0 
	-800 0 -0.39260656 131.69164 -800 0 -18.476072 -115.22336 
	-20.322698 -10.51016 -800 0 -0.049510771 179.89495 -800 0 
	-800 0 -18.476072 -115.22336 -800 0 -0.069146167 178.63157 
7.56 -0.66292828 -20.989184 -800 0 -20.31888 -11.076167 -800 0 
	-800 0 -0.39464929 130.8075 -800 0 -18.441494 -115.6815 
	-20.31888 -11.076167 -800 0 -0.049550364 179.89336 -800 0 
	-800 0 -18.441494 -115.6815 -800 0 -0.069713438 178.62569 
7.57 -0.66346419 -22.127155 -800 0 -20.31499 -11.641988 -800 0 
	-800 0 -0.39626022 129.91885 -800 0 -18.406575 -116.14164 
	-20.31499 -11.641988 -800 0 -0.049587803 179.89178 -800 0 
	-800 0 -18.406575 -116.14164 -800 0 -0.070287076 178.61983 
7.58 -0.6636546 -23.263824 -800 0 -20.311025 -12.207594 -800 0 
	-800 0 -0.39743543 129.02568 -800 0 -18.371316 -116.60381 
	-20.311025 -12.207594 -800 0 -0.049623115 179.89019 -800 0 
	-800 0 -18.371316 -116.60381 -800 0 -0.070867146 178.61399 
7.59 -0.66350375 -24.399142 -800 0 -20.306983 -12.772956 -800 0 
	-800 0 -0.39817111 128.12797 -800 0 -18.335717 -117.068 
	-20.306983 -12.772956 -800 0 -0.049656331 179.88861 -800 0 
	-800 0 -18.335717 -117.068 -800 0 -0.071453714 178.60817 
7.6 -0.66301592 -25.533062 -800 0 -20.302859 -13.338043 -800 0 
	-800 0 -0.39846348 127.22573 -800 0 -18.29978 -117.53423 
	-20.302859 -13.338043 -800 0 -0.049687481 179.88702 -800 0 
	-800 0 -18.29978 -117.53423 -800 0 -0.072046845 178.60237 
7.61 -0.66637257 -26.678913 -800 0 -20.300797 -13.907905 -800 0 
	-800 0 -0.40234613 126.3544 -800 0 -18.266656 -117.97985 
	-20.300797 -13.907905 -800 0 -0.049728276 179.88549 -800 0 
	-800 0 -18.266656 -117.97985 -800 0 -0.072609503 178.59628 
7.62 -0.66937121 -27.823412 -800 0 -20.298668 -14.477541 -800 0 
	-800 0 -0.40583619 125.47846 -800 0 -18.233206 -118.4275 
	-20.298668 -14.477541 -800 0 -0.0497669 179.88397 -800 0 
	-800 0 -18.233206 -118.4275 -800 0 -0.073178317 178.59021 
7.63 -0.67201594 -28.966508 -800 0 -20.296468 -15.046922 -800 0 
	-800 0 -0.40892945 124.5979 -800 0 -18.199429 -118.87719 
	-20.296468 -15.046922 -800 0 -0.049803386 179.88244 -800 0 
	-800 0 -18.199429 -118.87719 -800 0 -0.073753349 178.58415 
7.64 -0.6743109 -30.108151 -800 0 -20.294194 -15.616024 -800 0 
	-800 0 -0.41162173 123.71272 -800 0 -18.165327 -119.32893 
	-20.294194 -15.616024 -800 0 -0.049837766 179.88091 -800 0 
	-800 0 -18.165327 -119.32893 -800 0 -0.074334666 178.57811 
7.65 -0.67626031 -31.248295 -800 0 -20.291842 -16.184818 -800 0 
	-800 0 -0.41390891 122.82288 -800 0 -18.130899 -119.78273 
	-20.291842 -16.184818 -800 0 -0.049870077 179.87938 -800 0 
	-800 0 -18.130899 -119.78273 -800 0 -0.07492233 178.57209 
7.66 -0.6778684 -32.386893 -800 0 -20.289408 -16.753279 -800 0 
	-800 0 -0.41578694 121.9284 -800 0 -18.096146 -120.23859 
	-20.289408 -16.753279 -800 0 -0.04990035 179.87785 -800 0 
	-800 0 -18.096146 -120.23859 -800 0 -0.075516407 178.56608 
7.67 -0.67913946 -33.523902 -800 0 -20.286889 -17.32138 -800 0 
	-800 0 -0.41725182 121.02925 -800 0 -18.06107 -120.69653 
	-20.286889 -17.32138 -800 0 -0.049928623 179.87632 -800 0 
	-800 0 -18.06107 -120.69653 -800 0 -0.076116958 178.5601 
7.68 -0.68007779 -34.65928 -800 0 -20.284282 -17.889096 -800 0 
	-800 0 -0.41829959 120.12542 -800 0 -18.02567 -121.15654 
	-20.284282 -17.889096 -800 0 -0.049954929 179.87478 -800 0 
	-800 0 -18.02567 -121.15654 -800 0 -0.076724048 178.55413 
7.69 -0.6806877 -35.792989 -800 0 -20.281581 -18.4564 -800 0 
	-800 0 -0.41892639 119.2169 -800 0 -17.989948 -121.61865 
	-20.281581 -18.4564 -800 0 -0.049979304 179.87324 -800 0 
	-800 0 -17.989948 -121.61865 -800 0 -0.077337739 178.54819 
7.7 -0.68097349 -36.92499 -800 0 -20.278784 -19.023266 -800 0 
	-800 0 -0.41912841 118.30368 -800 0 -17.953904 -122.08286 
	-20.278784 -19.023266 -800 0 -0.050001785 179.87171 -800 0 
	-800 0 -17.953904 -122.08286 -800 0 -0.077958094 178.54227 
7.71 -0.68473112 -38.066968 -800 0 -20.277725 -19.591735 -800 0 
	-800 0 -0.42416983 117.35646 -800 0 -17.919466 -122.56899 
	-20.277725 -19.591735 -800 0 -0.050034336 179.87019 -800 0 
	-800 0 -17.919466 -122.56899 -800 0 -0.078588614 178.53674 
7.72 -0.68813372 -39.207325 -800 0 -20.276577 -20.15982 -800 0 
	-800 0 -0.42877181 116.40391 -800 0 -17.884737 -123.05739 
	-20.276577 -20.15982 -800 0 -0.050064948 179.86867 -800 0 
	-800 0 -17.884737 -123.05739 -800 0 -0.079225457 178.53123 
7.73 -0.69118539 -40.346018 -800 0 -20.275334 -20.7275 -800 0 
	-800 0 -0.43292913 115.44604 -800 0 -17.849719 -123.54808 
	-20.275334 -20.7275 -800 0 -0.050093662 179.86715 -800 0 
	-800 0 -17.849719 -123.54808 -800 0 -0.079868659 178.52576 
7.74 -0.69389023 -41.483007 -800 0 -20.273994 -21.29475 -800 0 
	-800 0 -0.43663666 114.48283 -800 0 -17.814414 -124.04107 
	-20.273994 -21.29475 -800 0 -0.050120516 179.86563 -800 0 
	-800 0 -17.814414 -124.04107 -800 0 -0.080518256 178.52031 
7.75 -0.6962524 -42.618255 -800 0 -20.272552 -21.861547 -800 0 
	-800 0 -0.43988937 113.51428 -800 0 -17.778823 -124.53636 
	-20.272552 -21.861547 -800 0 -0.050145549 179.8641 -800 0 
	-800 0 -17.778823 -124.53636 -800 0 -0.081174278 178.5149 
7.76 -0.69827604 -43.751725 -800 0 -20.271004 -22.42787 -800 0 
	-800 0 -0.4426823 112.54039 -800 0 -17.742949 -125.03396 
	-20.271004 -22.42787 -800 0 -0.0501688 179.86257 -800 0 
	-800 0 -17.742949 -125.03396 -800 0 -0.081836758 178.50953 
7.77 -0.69996533 -44.883383 -800 0 -20.269346 -22.993695 -800 0 
	-800 0 -0.44501064 111.56115 -800 0 -17.706794 -125.53389 
	-20.269346 -22.993695 -800 0 -0.05019031 179.86104 -800 0 
	-800 0 -17.706794 -125.53389 -800 0 -0.082505723 178.50419 
7.78 -0.70132441 -46.013198 -800 0 -20.267575 -23.559 -800 0 
	-800 0 -0.44686964 110.57657 -800 0 -17.670359 -126.03615 
	-20.267575 -23.559 -800 0 -0.050210119 179.8595 -800 0 
	-800 0 -17.670359 -126.03615 -800 0 -0.083181199 178.49888 
7.79 -0.70235743 -47.141139 -800 0 -20.265685 -24.123763 -800 0 
	-800 0 -0.4482547 109.58663 -800 0 -17.633648 -126.54074 
	-20.265685 -24.123763 -800 0 -0.050228268 179.85796 -800 0 
	-800 0 -17.633648 -126.54074 -800 0 -0.083863212 178.49361 
7.8 -0.70306852 -48.267178 -800 0 -20.263674 -24.687961 -800 0 
	-800 0 -0.44916133 108.59135 -800 0 -17.596663 -127.04769 
	-20.263674 -24.687961 -800 0 -0.050244797 179.85642 -800 0 
	-800 0 -17.596663 -127.04769 -800 0 -0.08455178 178.48838 
7.81 -0.70684973 -49.402363 -800 0 -20.263081 -25.252938 -800 0 
	-800 0 -0.45122861 107.6249 -800 0 -17.561583 -127.52971 
	-20.263081 -25.252938 -800 0 -0.050272584 179.85488 -800 0 
	-800 0 -17.561583 -127.52971 -800 0 -0.085211326 178.48297 
7.82 -0.71027797 -50.535759 -800 0 -20.26237 -25.81742 -800 0 
	-800 0 -0.45282881 106.65324 -800 0 -17.526247 -128.014 
	-20.26237 -25.81742 -800 0 -0.050298731 179.85335 -800 0 
	-800 0 -17.526247 -128.014 -800 0 -0.085877136 178.4776 
7.83 -0.71335715 -51.667333 -800 0 -20.261535 -26.381388 -800 0 
	-800 0 -0.45395695 105.67635 -800 0 -17.490656 -128.50058 
	-20.261535 -26.381388 -800 0 -0.05032328 179.85181 -800 0 
	-800 0 -17.490656 -128.50058 -800 0 -0.086549233 178.47226 
7.84 -0.71609121 -52.797056 -800 0 -20.260574 -26.944822 -800 0 
	-800 0 -0.45460816 104.69425 -800 0 -17.454814 -128.98944 
	-20.260574 -26.944822 -800 0 -0.050346274 179.85026 -800 0 
	-800 0 -17.454814 -128.98944 -800 0 -0.087227639 178.46695 
7.85 -0.71848409 -53.9249 -800 0 -20.259481 -27.507704 -800 0 
	-800 0 -0.4547777 103.70693 -800 0 -17.418722 -129.4806 
	-20.259481 -27.507704 -800 0 -0.050367756 179.84871 -800 0 
	-800 0 -17.418722 -129.4806 -800 0 -0.087912372 178.46168 
7.86 -0.72053969 -55.05084 -800 0 -20.258253 -28.070013 -800 0 
	-800 0 -0.45446094 102.71441 -800 0 -17.382383 -129.97408 
	-20.258253 -28.070013 -800 0 -0.050387769 179.84716 -800 0 
	-800 0 -17.382383 -129.97408 -800 0 -0.088603447 178.45645 
7.87 -0.72226192 -56.174851 -800 0 -20.256884 -28.631732 -800 0 
	-800 0 -0.4536534 101.71667 -800 0 -17.345799 -130.46988 
	-20.256884 -28.631732 -800 0 -0.050406357 179.8456 -800 0 
	-800 0 -17.345799 -130.46988 -800 0 -0.089300878 178.45125 
7.88 -0.72365464 -57.296912 -800 0 -20.255372 -29.192842 -800 0 
	-800 0 -0.45235073 100.71374 -800 0 -17.308972 -130.96801 
	-20.255372 -29.192842 -800 0 -0.050423564 179.84404 -800 0 
	-800 0 -17.308972 -130.96801 -800 0 -0.090004675 178.4461 
7.89 -0.72472169 -58.417002 -800 0 -20.253711 -29.753324 -800 0 
	-800 0 -0.45054876 99.705603 -800 0 -17.271907 -131.46848 
	-20.253711 -29.753324 -800 0 -0.050439435 179.84247 -800 0 
	-800 0 -17.271907 -131.46848 -800 0 -0.090714845 178.44099 
7.9 -0.72546684 -59.535103 -800 0 -20.251898 -30.31316 -800 0 
	-800 0 -0.44824344 98.692283 -800 0 -17.234605 -131.97131 
	-20.251898 -30.31316 -800 0 -0.050454013 179.84089 -800 0 
	-800 0 -17.234605 -131.97131 -800 0 -0.091431392 178.43591 
7.91 -0.72896838 -60.661624 -800 0 -20.251341 -30.873201 -800 0 
	-800 0 -0.45253565 97.663588 -800 0 -17.199093 -132.49263 
	-20.251341 -30.873201 -800 0 -0.050479606 179.83933 -800 0 
	-800 0 -17.199093 -132.49263 -800 0 -0.092175219 178.43104 
7.92 -0.73211732 -61.786268 -800 0 -20.250633 -31.432668 -800 0 
	-800 0 -0.45638075 96.629022 -800 0 -17.163376 -133.01647 
	-20.250633 -31.432668 -800 0 -0.050503889 179.83776 -800 0 
	-800 0 -17.163376 -133.01647 -800 0 -0.092925057 178.42622 
7.93 -0.7349173 -62.909015 -800 0 -20.24977 -31.991545 -800 0 
	-800 0 -0.45977356 95.588587 -800 0 -17.127456 -133.54285 
	-20.24977 -31.991545 -800 0 -0.050526909 179.83618 -800 0 
	-800 0 -17.127456 -133.54285 -800 0 -0.09368088 178.42145 
7.94 -0.73737194 -64.029845 -800 0 -20.248747 -32.549817 -800 0 
	-800 0 -0.46270905 94.542287 -800 0 -17.091338 -134.07177 
	-20.248747 -32.549817 -800 0 -0.05054871 179.8346 -800 0 
	-800 0 -17.091338 -134.07177 -800 0 -0.094442652 178.41673 
7.95 -0.73948482 -65.148741 -800 0 -20.247562 -33.107468 -800 0 
	-800 0 -0.46518233 93.490127 -800 0 -17.055024 -134.60324 
	-20.247562 -33.107468 -800 0 -0.05056934 179.83301 -800 0 
	-800 0 -17.055024 -134.60324 -800 0 -0.095210337 178.41206 
7.96 -0.7412595 -66.265687 -800 0 -20.246208 -33.664483 -800 0 
	-800 0 -0.46718863 92.432112 -800 0 -17.01852 -135.13726 
	-20.246208 -33.664483 -800 0 -0.050588843 179.83142 -800 0 
	-800 0 -17.01852 -135.13726 -800 0 -0.095983892 178.40744 
7.97 -0.74269948 -67.38067 -800 0 -20.244681 -34.220847 -800 0 
	-800 0 -0.46872331 91.36825 -800 0 -16.981828 -135.67385 
	-20.244681 -34.220847 -800 0 -0.050607267 179.82982 -800 0 
	-800 0 -16.981828 -135.67385 -800 0 -0.096763267 178.40288 
7.98 -0.74380821 -68.493676 -800 0 -20.242978 -34.776545 -800 0 
	-800 0 -0.46978192 90.298552 -800 0 -16.944954 -136.21301 
	-20.242978 -34.776545 -800 0 -0.050624658 179.82822 -800 0 
	-800 0 -16.944954 -136.21301 -800 0 -0.09754841 178.39837 
7.99 -0.74458907 -69.604697 -800 0 -20.241093 -35.331563 -800 0 
	-800 0 -0.47036016 89.223028 -800 0 -16.907901 -136.75476 
	-20.241093 -35.331563 -800 0 -0.050641063 179.82661 -800 0 
	-800 0 -16.907901 -136.75476 -800 0 -0.098339261 178.39393 
8 -0.7450454 -70.713724 -800 0 -20.239023 -35.885885 -800 0 
	-800 0 -0.47045388 88.14169 -800 0 -16.870674 -137.29909 
	-20.239023 -35.885885 -800 0 -0.05065653 179.82499 -800 0 
	-800 0 -16.870674 -137.29909 -800 0 -0.099135754 178.38954 
8.01 -0.74893289 -71.834427 -800 0 -20.23805 -36.445022 -800 0 
	-800 0 -0.47542378 87.075227 -800 0 -16.836672 -137.84192 
	-20.23805 -36.445022 -800 0 -0.050689484 179.82341 -800 0 
	-800 0 -16.836672 -137.84192 -800 0 -0.099934503 178.38517 
8.02 -0.75247807 -72.953402 -800 0 -20.236893 -37.003621 -800 0 
	-800 0 -0.47997511 86.002827 -800 0 -16.802519 -138.38745 
	-20.236893 -37.003621 -800 0 -0.050721484 179.82182 -800 0 
	-800 0 -16.802519 -138.38745 -800 0 -0.1007384 178.38087 
8.03 -0.75568401 -74.07064 -800 0 -20.235548 -37.561672 -800 0 
	-800 0 -0.48410384 84.924501 -800 0 -16.76822 -138.93568 
	-20.235548 -37.561672 -800 0 -0.050752579 179.82023 -800 0 
	-800 0 -16.76822 -138.93568 -800 0 -0.10154736 178.37663 
8.04 -0.75855372 -75.186133 -800 0 -20.234009 -38.119162 -800 0 
	-800 0 -0.48780613 83.84026 -800 0 -16.733778 -139.48661 
	-20.234009 -38.119162 -800 0 -0.050782818 179.81863 -800 0 
	-800 0 -16.733778 -139.48661 -800 0 -0.10236129 178.37245 
8.05 -0.76109015 -76.299875 -800 0 -20.232272 -38.676079 -800 0 
	-800 0 -0.49107829 82.750117 -800 0 -16.699198 -140.04026 
	-20.232272 -38.676079 -800 0 -0.050812248 179.81702 -800 0 
	-800 0 -16.699198 -140.04026 -800 0 -0.10318008 178.36833 
8.06 -0.76329619 -77.411863 -800 0 -20.230334 -39.232414 -800 0 
	-800 0 -0.49391679 81.654089 -800 0 -16.664484 -140.59662 
	-20.230334 -39.232414 -800 0 -0.050840919 179.81541 -800 0 
	-800 0 -16.664484 -140.59662 -800 0 -0.10400364 178.36428 
8.07 -0.76517466 -78.522094 -800 0 -20.228188 -39.788155 -800 0 
	-800 0 -0.49631828 80.55219 -800 0 -16.629643 -141.1557 
	-20.228188 -39.788155 -800 0 -0.050868881 179.8138 -800 0 
	-800 0 -16.629643 -141.1557 -800 0 -0.10483185 178.36029 
8.08 -0.7667283 -79.630569 -800 0 -20.22583 -40.343291 -800 0 
	-800 0 -0.49827959 79.44444 -800 0 -16.594678 -141.7175 
	-20.22583 -40.343291 -800 0 -0.050896183 179.81218 -800 0 
	-800 0 -16.594678 -141.7175 -800 0 -0.10566459 178.35637 
8.09 -0.76795977 -80.737288 -800 0 -20.223256 -40.897811 -800 0 
	-800 0 -0.49979773 78.33086 -800 0 -16.559594 -142.28202 
	-20.223256 -40.897811 -800 0 -0.050922875 179.81055 -800 0 
	-800 0 -16.559594 -142.28202 -800 0 -0.10650173 178.35253 
8.1 -0.76887161 -81.842256 -800 0 -20.220462 -41.451706 -800 0 
	-800 0 -0.5008699 77.211472 -800 0 -16.524398 -142.84926 
	-20.220462 -41.451706 -800 0 -0.050949008 179.80892 -800 0 
	-800 0 -16.524398 -142.84926 -800 0 -0.10734314 178.34875 
8.11 -0.77490197 -83.00223 -800 0 -20.216237 -42.039317 -800 0 
	-800 0 -0.50562626 76.073764 -800 0 -16.489423 -143.42402 
	-20.216237 -42.039317 -800 0 -0.05102809 179.80739 -800 0 
	-800 0 -16.489423 -143.42402 -800 0 -0.10823769 178.3447 
8.12 -0.78059639 -84.161644 -800 0 -20.211767 -42.626783 -800 0 
	-800 0 -0.50993662 74.929607 -800 0 -16.45433 -144.00179 
	-20.211767 -42.626783 -800 0 -0.051106719 179.80585 -800 0 
	-800 0 -16.45433 -144.00179 -800 0 -0.10913711 178.34073 
8.13 -0.78595544 -85.32051 -800 0 -20.207046 -43.214097 -800 0 
	-800 0 -0.51379712 73.779024 -800 0 -16.419124 -144.58256 
	-20.207046 -43.214097 -800 0 -0.05118495 179.80431 -800 0 
	-800 0 -16.419124 -144.58256 -800 0 -0.11004126 178.33683 
8.14 -0.7909796 -86.478841 -800 0 -20.202069 -43.801252 -800 0 
	-800 0 -0.51720407 72.622037 -800 0 -16.38381 -145.16635 
	-20.202069 -43.801252 -800 0 -0.05126284 179.80277 -800 0 
	-800 0 -16.38381 -145.16635 -800 0 -0.11094997 178.333 
8.15 -0.79566922 -87.636654 -800 0 -20.19683 -44.388239 -800 0 
	-800 0 -0.52015402 71.45867 -800 0 -16.348395 -145.75314 
	-20.19683 -44.388239 -800 0 -0.051340443 179.80123 -800 0 
	-800 0 -16.348395 -145.75314 -800 0 -0.11186307 178.32926 
8.16 -0.80002452 -88.793964 -800 0 -20.191325 -44.975054 -800 0 
	-800 0 -0.5226437 70.288953 -800 0 -16.312883 -146.34293 
	-20.191325 -44.975054 -800 0 -0.051417818 179.79968 -800 0 
	-800 0 -16.312883 -146.34293 -800 0 -0.11278039 178.32559 
8.17 -0.80404558 -89.95079 -800 0 -20.185546 -45.561689 -800 0 
	-800 0 -0.52467006 69.112915 -800 0 -16.277281 -146.93573 
	-20.185546 -45.561689 -800 0 -0.051495022 179.79813 -800 0 
	-800 0 -16.277281 -146.93573 -800 0 -0.11370175 178.322 
8.18 -0.80773236 -91.107155 -800 0 -20.179491 -46.148138 -800 0 
	-800 0 -0.5262303 67.930588 -800 0 -16.241594 -147.53154 
	-20.179491 -46.148138 -800 0 -0.051572113 179.79657 -800 0 
	-800 0 -16.241594 -147.53154 -800 0 -0.11462695 178.31849 
8.19 -0.81108464 -92.26308 -800 0 -20.173152 -46.734395 -800 0 
	-800 0 -0.52732183 66.742007 -800 0 -16.20583 -148.13034 
	-20.173152 -46.734395 -800 0 -0.051649149 179.79502 -800 0 
	-800 0 -16.20583 -148.13034 -800 0 -0.11555579 178.31507 
8.2 -0.81410207 -93.418589 -800 0 -20.166525 -47.320456 -800 0 
	-800 0 -0.52794231 65.54721 -800 0 -16.169994 -148.73213 
	-20.166525 -47.320456 -800 0 -0.051726191 179.79346 -800 0 
	-800 0 -16.169994 -148.73213 -800 0 -0.11648804 178.31173 
8.21 -0.81809925 -94.544394 -800 0 -20.164982 -47.881268 -800 0 
	-800 0 -0.53365076 64.366763 -800 0 -16.138407 -149.32869 
	-20.164982 -47.881268 -800 0 -0.051766348 179.79187 -800 0 
	-800 0 -16.138407 -149.32869 -800 0 -0.11735951 178.30866 
8.22 -0.82172676 -95.668542 -800 0 -20.163186 -48.441561 -800 0 
	-800 0 -0.53892001 63.180211 -800 0 -16.10679 -149.92803 
	-20.163186 -48.441561 -800 0 -0.051806287 179.79027 -800 0 
	-800 0 -16.10679 -149.92803 -800 0 -0.11823262 178.30568 
8.23 -0.82498747 -96.791045 -800 0 -20.16113 -49.001332 -800 0 
	-800 0 -0.5437466 61.987601 -800 0 -16.075149 -150.53016 
	-20.16113 -49.001332 -800 0 -0.051846064 179.78867 -800 0 
	-800 0 -16.075149 -150.53016 -800 0 -0.11910711 178.30278 
8.24 -0.82788419 -97.911915 -800 0 -20.158812 -49.560581 -800 0 
	-800 0 -0.54812731 60.788982 -800 0 -16.04349 -151.13505 
	-20.158812 -49.560581 -800 0 -0.051885732 179.78707 -800 0 
	-800 0 -16.04349 -151.13505 -800 0 -0.11998273 178.29997 
8.25 -0.83041964 -99.031166 -800 0 -20.156225 -50.119305 -800 0 
	-800 0 -0.55205916 59.584408 -800 0 -16.011819 -151.74269 
	-20.156225 -50.119305 -800 0 -0.051925346 179.78546 -800 0 
	-800 0 -16.011819 -151.74269 -800 0 -0.12085924 178.29724 
8.26 -0.83259641 -100.14881 -800 0 -20.153364 -50.677502 -800 0 
	-800 0 -0.55553938 58.373934 -800 0 -15.980143 -152.35308 
	-20.153364 -50.677502 -800 0 -0.051964961 179.78384 -800 0 
	-800 0 -15.980143 -152.35308 -800 0 -0.12173635 178.2946 
8.27 -0.83441703 -101.26488 -800 0 -20.150226 -51.235172 -800 0 
	-800 0 -0.55856548 57.157619 -800 0 -15.948469 -152.96618 
	-20.150226 -51.235172 -800 0 -0.052004634 179.78222 -800 0 
	-800 0 -15.948469 -152.96618 -800 0 -0.1226138 178.29204 
8.28 -0.83588388 -102.37938 -800 0 -20.146805 -51.792314 -800 0 
	-800 0 -0.56113519 55.935524 -800 0 -15.916803 -153.58199 
	-20.146805 -51.792314 -800 0 -0.052044419 179.78059 -800 0 
	-800 0 -15.916803 -153.58199 -800 0 -0.12349129 178.28958 
8.29 -0.83699924 -103.49233 -800 0 -20.143097 -52.348927 -800 0 
	-800 0 -0.56324651 54.707714 -800 0 -15.885151 -154.20049 
	-20.143097 -52.348927 -800 0 -0.052084373 179.77896 -800 0 
	-800 0 -15.885151 -154.20049 -800 0 -0.12436852 178.2872 
8.3 -0.83776527 -104.60377 -800 0 -20.139096 -52.905012 -800 0 
	-800 0 -0.56489773 53.474255 -800 0 -15.853522 -154.82166 
	-20.139096 -52.905012 -800 0 -0.052124552 179.77732 -800 0 
	-800 0 -15.853522 -154.82166 -800 0 -0.1252452 178.28491 
8.31 -0.83971364 -105.72268 -800 0 -20.135695 -53.457498 -800 0 
	-800 0 -0.5704761 52.255046 -800 0 -15.823381 -155.4344 
	-20.135695 -53.457498 -800 0 -0.052172805 179.77568 -800 0 
	-800 0 -15.823381 -155.4344 -800 0 -0.12614409 178.28255 
8.32 -0.84126583 -106.84014 -800 0 -20.132006 -54.009492 -800 0 
	-800 0 -0.57562794 51.029904 -800 0 -15.793279 -156.04984 
	-20.132006 -54.009492 -800 0 -0.05222122 179.77404 -800 0 
	-800 0 -15.793279 -156.04984 -800 0 -0.12704248 178.28027 
8.33 -0.84242392 -107.95616 -800 0 -20.128026 -54.560995 -800 0 
	-800 0 -0.58035013 49.798893 -800 0 -15.763223 -156.66797 
	-20.128026 -54.560995 -800 0 -0.052269854 179.77239 -800 0 
	-800 0 -15.763223 -156.66797 -800 0 -0.12794006 178.27809 
8.34 -0.84318989 -109.07076 -800 0 -20.123749 -55.11201 -800 0 
	-800 0 -0.58463979 48.562082 -800 0 -15.733219 -157.28878 
	-20.123749 -55.11201 -800 0 -0.05231876 179.77073 -800 0 
	-800 0 -15.733219 -157.28878 -800 0 -0.12883652 178.276 
8.35 -0.84356561 -110.18397 -800 0 -20.119171 -55.662538 -800 0 
	-800 0 -0.58849425 47.319544 -800 0 -15.703273 -157.91224 
	-20.119171 -55.662538 -800 0 -0.052367996 179.76907 -800 0 
	-800 0 -15.703273 -157.91224 -800 0 -0.12973152 178.274 
8.36 -0.84355284 -111.29579 -800 0 -20.114287 -56.212582 -800 0 
	-800 0 -0.59191109 46.071352 -800 0 -15.673393 -158.53832 
	-20.114287 -56.212582 -800 0 -0.052417617 179.7674 -800 0 
	-800 0 -15.673393 -158.53832 -800 0 -0.13062474 178.27209 
8.37 -0.84315322 -112.40627 -800 0 -20.109094 -56.762146 -800 0 
	-800 0 -0.59488816 44.817585 -800 0 -15.643586 -159.167 
	-20.109094 -56.762146 -800 0 -0.052467679 179.76573 -800 0 
	-800 0 -15.643586 -159.167 -800 0 -0.13151582 178.27027 
8.38 -0.84236827 -113.51543 -800 0 -20.103585 -57.311233 -800 0 
	-800 0 -0.59742353 43.558324 -800 0 -15.613857 -159.79825 
	-20.103585 -57.311233 -800 0 -0.052518241 179.76406 -800 0 
	-800 0 -15.613857 -159.79825 -800 0 -0.13240443 178.26855 
8.39 -0.84119937 -114.62329 -800 0 -20.097757 -57.859847 -800 0 
	-800 0 -0.59951555 42.293654 -800 0 -15.584215 -160.43205 
	-20.097757 -57.859847 -800 0 -0.052569359 179.76238 -800 0 
	-800 0 -15.584215 -160.43205 -800 0 -0.13329019 178.26692 
8.4 -0.83964779 -115.72989 -800 0 -20.091604 -58.407991 -800 0 
	-800 0 -0.60116286 41.023662 -800 0 -15.554665 -161.06837 
	-20.091604 -58.407991 -800 0 -0.052621091 179.7607 -800 0 
	-800 0 -15.554665 -161.06837 -800 0 -0.13417275 178.26538 
8.41 -0.84422038 -116.85772 -800 0 -20.088131 -58.969606 -800 0 
	-800 0 -0.6063466 39.76676 -800 0 -15.52689 -161.69947 
	-20.088131 -58.969606 -800 0 -0.05268336 179.75914 -800 0 
	-800 0 -15.52689 -161.69947 -800 0 -0.13505855 178.26386 
8.42 -0.84840021 -117.98466 -800 0 -20.084346 -59.530988 -800 0 
	-800 0 -0.61111936 38.504437 -800 0 -15.499222 -162.33305 
	-20.084346 -59.530988 -800 0 -0.052746124 179.75757 -800 0 
	-800 0 -15.499222 -162.33305 -800 0 -0.13594075 178.26242 
8.43 -0.8521888 -119.11074 -800 0 -20.080243 -60.092145 -800 0 
	-800 0 -0.61547882 37.236781 -800 0 -15.471667 -162.96907 
	-20.080243 -60.092145 -800 0 -0.05280944 179.756 -800 0 
	-800 0 -15.471667 -162.96907 -800 0 -0.13681897 178.26108 
8.44 -0.85558756 -120.236 -800 0 -20.075817 -60.653087 -800 0 
	-800 0 -0.61942286 35.963883 -800 0 -15.444233 -163.6075 
	-20.075817 -60.653087 -800 0 -0.052873363 179.75442 -800 0 
	-800 0 -15.444233 -163.6075 -800 0 -0.13769286 178.25983 
8.45 -0.85859781 -121.36046 -800 0 -20.071065 -61.213821 -800 0 
	-800 0 -0.62294962 34.685837 -800 0 -15.416925 -164.24831 
	-20.071065 -61.213821 -800 0 -0.05293795 179.75285 -800 0 
	-800 0 -15.416925 -164.24831 -800 0 -0.13856201 178.25867 
8.46 -0.86122075 -122.48417 -800 0 -20.065983 -61.774359 -800 0 
	-800 0 -0.62605747 33.402741 -800 0 -15.38975 -164.89145 
	-20.065983 -61.774359 -800 0 -0.053003258 179.75127 -800 0 
	-800 0 -15.38975 -164.89145 -800 0 -0.13942606 178.2576 
8.47 -0.86345746 -123.60716 -800 0 -20.060564 -62.33471 -800 0 
	-800 0 -0.62874503 32.114695 -800 0 -15.362714 -165.53689 
	-20.060564 -62.33471 -800 0 -0.053069344 179.74969 -800 0 
	-800 0 -15.362714 -165.53689 -800 0 -0.14028461 178.25663 
8.48 -0.86530888 -124.72947 -800 0 -20.054806 -62.894885 -800 0 
	-800 0 -0.63101118 30.821803 -800 0 -15.335825 -166.18459 
	-20.054806 -62.894885 -800 0 -0.053136266 179.74811 -800 0 
	-800 0 -15.335825 -166.18459 -800 0 -0.14113726 178.25575 
8.49 -0.86677584 -125.85115 -800 0 -20.048704 -63.454894 -800 0 
	-800 0 -0.63285503 29.524172 -800 0 -15.309088 -166.8345 
	-20.048704 -63.454894 -800 0 -0.053204083 179.74652 -800 0 
	-800 0 -15.309088 -166.8345 -800 0 -0.14198361 178.25496 
8.5 -0.867859 -126.97222 -800 0 -20.042253 -64.014749 -800 0 
	-800 0 -0.63427595 28.221911 -800 0 -15.28251 -167.4866 
	-20.042253 -64.014749 -800 0 -0.053272852 179.74493 -800 0 
	-800 0 -15.28251 -167.4866 -800 0 -0.14282327 178.25427 
8.51 -0.87101504 -128.1033 -800 0 -20.037409 -64.573087 -800 0 
	-800 0 -0.64014818 26.918405 -800 0 -15.257931 -168.1422 
	-20.037409 -64.573087 -800 0 -0.053342874 179.74336 -800 0 
	-800 0 -15.257931 -168.1422 -800 0 -0.14367418 178.25377 
8.52 -0.87373704 -129.23373 -800 0 -20.03222 -65.131285 -800 0 
	-800 0 -0.64561962 25.610099 -800 0 -15.233537 -168.79994 
	-20.03222 -65.131285 -800 0 -0.053413762 179.74178 -800 0 
	-800 0 -15.233537 -168.79994 -800 0 -0.14451755 178.25337 
8.53 -0.8760262 -130.36352 -800 0 -20.026683 -65.689358 -800 0 
	-800 0 -0.65068833 24.297109 -800 0 -15.209333 -169.45979 
	-20.026683 -65.689358 -800 0 -0.053485571 179.7402 -800 0 
	-800 0 -15.209333 -169.45979 -800 0 -0.14535297 178.25306 
8.54 -0.87788359 -131.49274 -800 0 -20.020794 -66.24732 -800 0 
	-800 0 -0.65535263 22.979557 -800 0 -15.185325 -170.12169 
	-20.020794 -66.24732 -800 0 -0.053558355 179.73862 -800 0 
	-800 0 -15.185325 -170.12169 -800 0 -0.14618002 178.25284 
8.55 -0.87931019 -132.6214 -800 0 -20.014548 -66.805184 -800 0 
	-800 0 -0.65961105 21.657565 -800 0 -15.161519 -170.78559 
	-20.014548 -66.805184 -800 0 -0.053632172 179.73703 -800 0 
	-800 0 -15.161519 -170.78559 -800 0 -0.1469983 178.25271 
8.56 -0.88030683 -133.74956 -800 0 -20.007941 -67.362967 -800 0 
	-800 0 -0.6634624 20.331258 -800 0 -15.137921 -171.45144 
	-20.007941 -67.362967 -800 0 -0.053707078 179.73545 -800 0 
	-800 0 -15.137921 -171.45144 -800 0 -0.14780739 178.25266 
8.57 -0.88087423 -134.87726 -800 0 -20.00097 -67.920682 -800 0 
	-800 0 -0.66690571 19.000767 -800 0 -15.114536 -172.1192 
	-20.00097 -67.920682 -800 0 -0.053783129 179.73386 -800 0 
	-800 0 -15.114536 -172.1192 -800 0 -0.14860688 178.25271 
8.58 -0.88101298 -136.00454 -800 0 -19.993629 -68.478347 -800 0 
	-800 0 -0.66994028 17.666224 -800 0 -15.09137 -172.78879 
	-19.993629 -68.478347 -800 0 -0.053860382 179.73228 -800 0 
	-800 0 -15.09137 -172.78879 -800 0 -0.14939636 178.25284 
8.59 -0.88072351 -137.13145 -800 0 -19.985916 -69.035977 -800 0 
	-800 0 -0.67256566 16.327762 -800 0 -15.068428 -173.46018 
	-19.985916 -69.035977 -800 0 -0.053938895 179.73069 -800 0 
	-800 0 -15.068428 -173.46018 -800 0 -0.15017541 178.25305 
8.6 -0.88000614 -138.25804 -800 0 -19.977826 -69.593589 -800 0 
	-800 0 -0.67478165 14.985519 -800 0 -15.045716 -174.1333 
	-19.977826 -69.593589 -800 0 -0.054018726 179.72911 -800 0 
	-800 0 -15.045716 -174.1333 -800 0 -0.15094364 178.25335 
8.61 -0.88606751 -139.39474 -800 0 -19.973512 -70.165787 -800 0 
	-800 0 -0.68220431 13.633534 -800 0 -15.025361 -174.81226 
	-19.973512 -70.165787 -800 0 -0.054097861 179.7277 -800 0 
	-800 0 -15.025361 -174.81226 -800 0 -0.15171123 178.25397 
8.62 -0.89176589 -140.53133 -800 0 -19.968861 -70.738151 -800 0 
	-800 0 -0.68921407 12.277601 -800 0 -15.005269 -175.49285 
	-19.968861 -70.738151 -800 0 -0.054177951 179.72629 -800 0 
	-800 0 -15.005269 -175.49285 -800 0 -0.15246674 178.25467 
8.63 -0.89710263 -141.66789 -800 0 -19.963872 -71.310704 -800 0 
	-800 0 -0.69580861 10.917871 -800 0 -14.985446 -176.175 
	-19.963872 -71.310704 -800 0 -0.054259044 179.72489 -800 0 
	-800 0 -14.985446 -176.175 -800 0 -0.15320978 178.25545 
8.64 -0.90207895 -142.80445 -800 0 -19.958539 -71.883466 -800 0 
	-800 0 -0.70198586 9.5545009 -800 0 -14.965896 -176.85867 
	-19.958539 -71.883466 -800 0 -0.054341192 179.72349 -800 0 
	-800 0 -14.965896 -176.85867 -800 0 -0.15393996 178.25631 
8.65 -0.90669596 -143.94108 -800 0 -19.952859 -72.456459 -800 0 
	-800 0 -0.70774406 8.1876471 -800 0 -14.946622 -177.54377 
	-19.952859 -72.456459 -800 0 -0.054424444 179.72209 -800 0 
	-800 0 -14.946622 -177.54377 -800 0 -0.15465688 178.25724 
8.66 -0.91095463 -145.07784 -800 0 -19.946829 -73.029704 -800 0 
	-800 0 -0.71308169 6.8174705 -800 0 -14.927629 -178.23025 
	-19.946829 -73.029704 -800 0 -0.054508849 179.72069 -800 0 
	-800 0 -14.927629 -178.23025 -800 0 -0.15536018 178.25825 
8.67 -0.91485581 -146.2148 -800 0 -19.940447 -73.603223 -800 0 
	-800 0 -0.71799754 5.4441338 -800 0 -14.90892 -178.91804 
	-19.940447 -73.603223 -800 0 -0.054594458 179.71929 -800 0 
	-800 0 -14.90892 -178.91804 -800 0 -0.15604949 178.25933 
8.68 -0.91840017 -147.35201 -800 0 -19.933708 -74.177041 -800 0 
	-800 0 -0.72249065 4.0678023 -800 0 -14.890499 -179.60708 
	-19.933708 -74.177041 -800 0 -0.054681321 179.7179 -800 0 
	-800 0 -14.890499 -179.60708 -800 0 -0.15672443 178.26048 
8.69 -0.92158828 -148.48954 -800 0 -19.926609 -74.75118 -800 0 
	-800 0 -0.72656038 2.6886429 -800 0 -14.87237 179.70272 
	-19.926609 -74.75118 -800 0 -0.054769487 179.71651 -800 0 
	-800 0 -14.87237 179.70272 -800 0 -0.15738466 178.26169 
8.7 -0.92442051 -149.62746 -800 0 -19.919148 -75.325664 -800 0 
	-800 0 -0.73020633 1.306825 -800 0 -14.854536 179.01142 
	-19.919148 -75.325664 -800 0 -0.054859007 179.71513 -800 0 
	-800 0 -14.854536 179.01142 -800 0 -0.15802983 178.26298 
8.71 -0.92161275 -150.68299 -800 0 -19.91641 -75.833236 -800 0 
	-800 0 -0.73495137 -0.056841468 -800 0 -14.837361 178.33596 
	-19.91641 -75.833236 -800 0 -0.054882424 179.71345 -800 0 
	-800 0 -14.837361 178.33596 -800 0 -0.15865119 178.26397 
8.72 -0.91836757 -151.73644 -800 0 -19.913329 -76.340323 -800 0 
	-800 0 -0.7392439 -1.4231385 -800 0 -14.82046 177.65957 
	-19.913329 -76.340323 -800 0 -0.054907056 179.71178 -800 0 
	-800 0 -14.82046 177.65957 -800 0 -0.15925815 178.26502 
8.73 -0.91469004 -152.78786 -800 0 -19.909901 -76.846945 -800 0 
	-800 0 -0.74308218 -2.7918984 -800 0 -14.803834 176.98231 
	-19.909901 -76.846945 -800 0 -0.054932943 179.7101 -800 0 
	-800 0 -14.803834 176.98231 -800 0 -0.15985043 178.26612 
8.74 -0.91058514 -153.83729 -800 0 -19.906125 -77.353123 -800 0 
	-800 0 -0.74646471 -4.1629517 -800 0 -14.787485 176.30425 
	-19.906125 -77.353123 -800 0 -0.054960125 179.70842 -800 0 
	-800 0 -14.787485 176.30425 -800 0 -0.16042776 178.26728 
8.75 -0.90605769 -154.88477 -800 0 -19.901997 -77.858877 -800 0 
	-800 0 -0.74939032 -5.5361272 -800 0 -14.771417 175.62548 
	-19.901997 -77.858877 -800 0 -0.054988643 179.70674 -800 0 
	-800 0 -14.771417 175.62548 -800 0 -0.16098985 178.26848 
8.76 -0.90111242 -155.93036 -800 0 -19.897516 -78.364227 -800 0 
	-800 0 -0.75185811 -6.9112528 -800 0 -14.755631 174.94604 
	-19.897516 -78.364227 -800 0 -0.055018536 179.70506 -800 0 
	-800 0 -14.755631 174.94604 -800 0 -0.16153647 178.26973 
8.77 -0.8957539 -156.97409 -800 0 -19.892679 -78.869195 -800 0 
	-800 0 -0.75386746 -8.2881547 -800 0 -14.740128 174.26603 
	-19.892679 -78.869195 -800 0 -0.055049845 179.70337 -800 0 
	-800 0 -14.740128 174.26603 -800 0 -0.16206735 178.27103 
8.78 -0.88998658 -158.01601 -800 0 -19.887483 -79.373802 -800 0 
	-800 0 -0.75541806 -9.6666585 -800 0 -14.724909 173.58551 
	-19.887483 -79.373802 -800 0 -0.05508261 179.70169 -800 0 
	-800 0 -14.724909 173.58551 -800 0 -0.16258228 178.27236 
8.79 -0.88381478 -159.05619 -800 0 -19.881927 -79.878069 -800 0 
	-800 0 -0.75650985 -11.046589 -800 0 -14.709976 172.90455 
	-19.881927 -79.878069 -800 0 -0.055116871 179.7 -800 0 
	-800 0 -14.709976 172.90455 -800 0 -0.16308102 178.27373 
8.8 -0.87724268 -160.09466 -800 0 -19.876008 -80.382019 -800 0 
	-800 0 -0.75714308 -12.42777 -800 0 -14.69533 172.22323 
	-19.876008 -80.382019 -800 0 -0.05515267 179.69831 -800 0 
	-800 0 -14.69533 172.22323 -800 0 -0.16356338 178.27514 
8.81 -0.88119318 -161.24951 -800 0 -19.868793 -80.956194 -800 0 
	-800 0 -0.76191459 -13.798523 -800 0 -14.68407 171.54697 
	-19.868793 -80.956194 -800 0 -0.055257485 179.69693 -800 0 
	-800 0 -14.68407 171.54697 -800 0 -0.16400217 178.27657 
8.82 -0.88470645 -162.40516 -800 0 -19.861193 -81.53102 -800 0 
	-800 0 -0.76622318 -15.170152 -800 0 -14.673093 170.87053 
	-19.861193 -81.53102 -800 0 -0.055363876 179.69556 -800 0 
	-800 0 -14.673093 170.87053 -800 0 -0.16442456 178.27801 
8.83 -0.88778332 -163.5617 -800 0 -19.853208 -82.106526 -800 0 
	-800 0 -0.77006899 -16.542479 -800 0 -14.662398 170.19397 
	-19.853208 -82.106526 -800 0 -0.05547188 179.69419 -800 0 
	-800 0 -14.662398 170.19397 -800 0 -0.16483041 178.27948 
8.84 -0.89042445 -164.71918 -800 0 -19.844834 -82.682744 -800 0 
	-800 0 -0.77345251 -17.915327 -800 0 -14.651985 169.51736 
	-19.844834 -82.682744 -800 0 -0.055581538 179.69283 -800 0 
	-800 0 -14.651985 169.51736 -800 0 -0.16521963 178.28097 
8.85 -0.89263036 -165.87768 -800 0 -19.83607 -83.259706 -800 0 
	-800 0 -0.77637449 -19.28852 -800 0 -14.641852 168.84078 
	-19.83607 -83.259706 -800 0 -0.055692887 179.69148 -800 0 
	-800 0 -14.641852 168.84078 -800 0 -0.1655921 178.28247 
8.86 -0.89440143 -167.03728 -800 0 -19.826915 -83.837444 -800 0 
	-800 0 -0.778836 -20.661881 -800 0 -14.631999 168.1643 
	-19.826915 -83.837444 -800 0 -0.055805967 179.69013 -800 0 
	-800 0 -14.631999 168.1643 -800 0 -0.16594775 178.28398 
8.87 -0.89573786 -168.19803 -800 0 -19.817366 -84.41599 -800 0 
	-800 0 -0.7808384 -22.035236 -800 0 -14.622423 167.488 
	-19.817366 -84.41599 -800 0 -0.055920815 179.6888 -800 0 
	-800 0 -14.622423 167.488 -800 0 -0.16628651 178.2855 
8.88 -0.89663971 -169.36003 -800 0 -19.807423 -84.995378 -800 0 
	-800 0 -0.7823833 -23.408409 -800 0 -14.613123 166.81193 
	-19.807423 -84.995378 -800 0 -0.056037469 179.68747 -800 0 
	-800 0 -14.613123 166.81193 -800 0 -0.16660831 178.28702 
8.89 -0.89710685 -170.52335 -800 0 -19.797083 -85.575641 -800 0 
	-800 0 -0.78347263 -24.78123 -800 0 -14.604097 166.13619 
	-19.797083 -85.575641 -800 0 -0.056155966 179.68615 -800 0 
	-800 0 -14.604097 166.13619 -800 0 -0.16691312 178.28855 
8.9 -0.89713898 -171.68806 -800 0 -19.786345 -86.156815 -800 0 
	-800 0 -0.78410855 -26.153525 -800 0 -14.595343 165.46083 
	-19.786345 -86.156815 -800 0 -0.056276343 179.68485 -800 0 
	-800 0 -14.595343 165.46083 -800 0 -0.16720092 178.29007 
8.91 -0.90223049 -172.89643 -800 0 -19.779243 -86.756956 -800 0 
	-800 0 -0.78902825 -27.564505 -800 0 -14.58807 164.76366 
	-19.779243 -86.756956 -800 0 -0.05638759 179.68357 -800 0 
	-800 0 -14.58807 164.76366 -800 0 -0.16752998 178.29187 
8.92 -0.90682254 -174.10609 -800 0 -19.771713 -87.358068 -800 0 
	-800 0 -0.7934503 -28.974995 -800 0 -14.581067 164.06688 
	-19.771713 -87.358068 -800 0 -0.056500728 179.6823 -800 0 
	-800 0 -14.581067 164.06688 -800 0 -0.16784158 178.29367 
8.93 -0.91091705 -175.31712 -800 0 -19.763755 -87.960187 -800 0 
	-800 0 -0.79737647 -30.384812 -800 0 -14.57433 163.37056 
	-19.763755 -87.960187 -800 0 -0.056615786 179.68104 -800 0 
	-800 0 -14.57433 163.37056 -800 0 -0.16813574 178.29545 
8.94 -0.91451577 -176.52961 -800 0 -19.755368 -88.563353 -800 0 
	-800 0 -0.80080889 -31.793774 -800 0 -14.567856 162.67478 
	-19.755368 -88.563353 -800 0 -0.056732792 179.67979 -800 0 
	-800 0 -14.567856 162.67478 -800 0 -0.16841251 178.29723 
8.95 -0.91762034 -177.74364 -800 0 -19.746552 -89.167604 -800 0 
	-800 0 -0.80374995 -33.201704 -800 0 -14.561641 161.9796 
	-19.746552 -89.167604 -800 0 -0.05685177 179.67856 -800 0 
	-800 0 -14.561641 161.9796 -800 0 -0.16867194 178.29899 
8.96 -0.92023221 -178.9593 -800 0 -19.737307 -89.77298 -800 0 
	-800 0 -0.80620237 -34.608425 -800 0 -14.555679 161.28509 
	-19.737307 -89.77298 -800 0 -0.056972747 179.67734 -800 0 
	-800 0 -14.555679 161.28509 -800 0 -0.1689141 178.30073 
8.97 -0.92235275 179.82332 -800 0 -19.727633 -90.37952 -800 0 
	-800 0 -0.80816911 -36.013764 -800 0 -14.549965 160.59135 
	-19.727633 -90.37952 -800 0 -0.057095747 179.67613 -800 0 
	-800 0 -14.549965 160.59135 -800 0 -0.16913909 178.30245 
8.98 -0.92398322 178.60413 -800 0 -19.71753 -90.987268 -800 0 
	-800 0 -0.80965341 -37.417551 -800 0 -14.544496 159.89842 
	-19.71753 -90.987268 -800 0 -0.057220795 179.67493 -800 0 
	-800 0 -14.544496 159.89842 -800 0 -0.169347 178.30415 
8.99 -0.92512484 177.38304 -800 0 -19.706998 -91.596266 -800 0 
	-800 0 -0.81065875 -38.819619 -800 0 -14.539266 159.20639 
	-19.706998 -91.596266 -800 0 -0.057347913 179.67375 -800 0 
	-800 0 -14.539266 159.20639 -800 0 -0.16953796 178.30582 
9 -0.92577887 176.15994 -800 0 -19.696037 -92.206558 -800 0 
	-800 0 -0.81118883 -40.219805 -800 0 -14.534269 158.51532 
	-19.696037 -92.206558 -800 0 -0.057477125 179.67259 -800 0 
	-800 0 -14.534269 158.51532 -800 0 -0.1697121 178.30746 
9.01 -0.93262203 174.89627 -800 0 -19.687011 -92.837831 -800 0 
	-800 0 -0.82132192 -41.651536 -800 0 -14.530167 157.79728 
	-19.687011 -92.837831 -800 0 -0.057616291 179.67165 -800 0 
	-800 0 -14.530167 157.79728 -800 0 -0.16999014 178.30979 
9.02 -0.93896639 173.62962 -800 0 -19.677618 -93.470721 -800 0 
	-800 0 -0.83101718 -43.082876 -800 0 -14.526316 157.07996 
	-19.677618 -93.470721 -800 0 -0.057756867 179.67073 -800 0 
	-800 0 -14.526316 157.07996 -800 0 -0.1702505 178.31211 
9.03 -0.94481383 172.3599 -800 0 -19.66786 -94.105276 -800 0 
	-800 0 -0.84027215 -44.513667 -800 0 -14.522709 156.36341 
	-19.66786 -94.105276 -800 0 -0.057898842 179.66983 -800 0 
	-800 0 -14.522709 156.36341 -800 0 -0.17049332 178.31439 
9.04 -0.95016835 171.08701 -800 0 -19.657743 -94.741544 -800 0 
	-800 0 -0.84908459 -45.943755 -800 0 -14.519341 155.64771 
	-19.657743 -94.741544 -800 0 -0.058042194 179.66895 -800 0 
	-800 0 -14.519341 155.64771 -800 0 -0.17071877 178.31665 
9.05 -0.9550376 169.81086 -800 0 -19.647272 -95.379569 -800 0 
	-800 0 -0.85745242 -47.372985 -800 0 -14.516203 154.93294 
	-19.647272 -95.379569 -800 0 -0.058186884 179.66809 -800 0 
	-800 0 -14.516203 154.93294 -800 0 -0.17092703 178.31888 
9.06 -0.95943451 168.53139 -800 0 -19.636457 -96.019377 -800 0 
	-800 0 -0.8653738 -48.801208 -800 0 -14.513289 154.21915 
	-19.636457 -96.019377 -800 0 -0.058332849 179.66725 -800 0 
	-800 0 -14.513289 154.21915 -800 0 -0.17111831 178.32107 
9.07 -0.96337529 167.24863 -800 0 -19.625311 -96.66094 -800 0 
	-800 0 -0.87284703 -50.228276 -800 0 -14.51059 153.50641 
	-19.625311 -96.66094 -800 0 -0.058480013 179.66643 -800 0 
	-800 0 -14.51059 153.50641 -800 0 -0.17129283 178.32322 
9.08 -0.96686316 165.96279 -800 0 -19.613839 -97.304143 -800 0 
	-800 0 -0.87987061 -51.654045 -800 0 -14.5081 152.79479 
	-19.613839 -97.304143 -800 0 -0.05862835 179.66563 -800 0 
	-800 0 -14.5081 152.79479 -800 0 -0.1714508 178.32532 
9.09 -0.96985464 164.6741 -800 0 -19.602017 -97.948849 -800 0 
	-800 0 -0.88644318 -53.078375 -800 0 -14.505811 152.08436 
	-19.602017 -97.948849 -800 0 -0.058778018 179.66485 -800 0 
	-800 0 -14.505811 152.08436 -800 0 -0.17159248 178.32739 
9.1 -0.97226505 163.38243 -800 0 -19.589803 -98.595133 -800 0 
	-800 0 -0.89256354 -54.501128 -800 0 -14.503714 151.37517 
	-19.589803 -98.595133 -800 0 -0.058929323 179.66409 -800 0 
	-800 0 -14.503714 151.37517 -800 0 -0.17171812 178.3294 
9.11 -0.97875178 162.11877 -800 0 -19.582521 -99.223024 -800 0 
	-800 0 -0.89802624 -55.889669 -800 0 -14.501485 150.68683 
	-19.582521 -99.223024 -800 0 -0.059053583 179.66327 -800 0 
	-800 0 -14.501485 150.68683 -800 0 -0.17187799 178.33093 
9.12 -0.98469534 160.85189 -800 0 -19.574883 -99.852874 -800 0 
	-800 0 -0.90303646 -57.276607 -800 0 -14.499404 149.99957 
	-19.574883 -99.852874 -800 0 -0.059179051 179.66248 -800 0 
	-800 0 -14.499404 149.99957 -800 0 -0.17202428 178.33241 
9.13 -0.99014093 159.58183 -800 0 -19.566918 -100.48466 -800 0 
	-800 0 -0.90759422 -58.661825 -800 0 -14.497461 149.31343 
	-19.566918 -100.48466 -800 0 -0.059305542 179.66171 -800 0 
	-800 0 -14.497461 149.31343 -800 0 -0.17215724 178.33384 
9.14 -0.99510319 158.30869 -800 0 -19.558637 -101.11836 -800 0 
	-800 0 -0.91169965 -60.045209 -800 0 -14.49565 148.62847 
	-19.558637 -101.11836 -800 0 -0.059432973 179.66095 -800 0 
	-800 0 -14.49565 148.62847 -800 0 -0.17227714 178.33521 
9.15 -0.99958381 157.0325 -800 0 -19.550044 -101.75394 -800 0 
	-800 0 -0.91535299 -61.426649 -800 0 -14.493961 147.94474 
	-19.550044 -101.75394 -800 0 -0.059561301 179.66023 -800 0 
	-800 0 -14.493961 147.94474 -800 0 -0.17238424 178.33654 
9.16 -1.0035809 155.75325 -800 0 -19.541141 -102.39141 -800 0 
	-800 0 -0.91855459 -62.806039 -800 0 -14.492385 147.26228 
	-19.541141 -102.39141 -800 0 -0.059690498 179.65952 -800 0 
	-800 0 -14.492385 147.26228 -800 0 -0.17247884 178.33781 
9.17 -1.0070924 154.47089 -800 0 -19.531931 -103.03079 -800 0 
	-800 0 -0.92130486 -64.183276 -800 0 -14.490916 146.58115 
	-19.531931 -103.03079 -800 0 -0.059820538 179.65884 -800 0 
	-800 0 -14.490916 146.58115 -800 0 -0.17256122 178.33902 
9.18 -1.0101166 153.18537 -800 0 -19.522416 -103.67212 -800 0 
	-800 0 -0.92360428 -65.558262 -800 0 -14.489543 145.90139 
	-19.522416 -103.67212 -800 0 -0.059951391 179.65819 -800 0 
	-800 0 -14.489543 145.90139 -800 0 -0.17263167 178.34017 
9.19 -1.0126522 151.89662 -800 0 -19.5126 -104.31542 -800 0 
	-800 0 -0.92545339 -66.930901 -800 0 -14.488259 145.22306 
	-19.5126 -104.31542 -800 0 -0.060083021 179.65755 -800 0 
	-800 0 -14.488259 145.22306 -800 0 -0.1726905 178.34126 
9.2 -1.0146984 150.60459 -800 0 -19.502485 -104.96073 -800 0 
	-800 0 -0.92685277 -68.301105 -800 0 -14.487054 144.54619 
	-19.502485 -104.96073 -800 0 -0.060215391 179.65695 -800 0 
	-800 0 -14.487054 144.54619 -800 0 -0.17273803 178.34229 
9.21 -1.0195461 149.29698 -800 0 -19.495124 -105.60646 -800 0 
	-800 0 -0.93126554 -69.654897 -800 0 -14.488384 143.8757 
	-19.495124 -105.60646 -800 0 -0.060337964 179.65636 -800 0 
	-800 0 -14.488384 143.8757 -800 0 -0.17274567 178.3434 
9.22 -1.0238389 147.98636 -800 0 -19.487479 -106.25415 -800 0 
	-800 0 -0.9352362 -71.006074 -800 0 -14.489787 143.20671 
	-19.487479 -106.25415 -800 0 -0.060460958 179.65579 -800 0 
	-800 0 -14.489787 143.20671 -800 0 -0.17274275 178.34445 
9.23 -1.0275779 146.67269 -800 0 -19.479555 -106.90385 -800 0 
	-800 0 -0.93876581 -72.354554 -800 0 -14.491253 142.53926 
	-19.479555 -106.90385 -800 0 -0.060584323 179.65525 -800 0 
	-800 0 -14.491253 142.53926 -800 0 -0.17272961 178.34542 
9.24 -1.0307644 145.35591 -800 0 -19.471355 -107.55558 -800 0 
	-800 0 -0.9418555 -73.700261 -800 0 -14.492774 141.87338 
	-19.471355 -107.55558 -800 0 -0.060708002 179.65474 -800 0 
	-800 0 -14.492774 141.87338 -800 0 -0.17270659 178.34633 
9.25 -1.0333998 144.03596 -800 0 -19.462886 -108.20937 -800 0 
	-800 0 -0.94450644 -75.043121 -800 0 -14.49434 141.2091 
	-19.462886 -108.20937 -800 0 -0.060831938 179.65425 -800 0 
	-800 0 -14.49434 141.2091 -800 0 -0.17267405 178.34716 
9.26 -1.0354856 142.7128 -800 0 -19.454152 -108.86527 -800 0 
	-800 0 -0.94671979 -76.383067 -800 0 -14.495941 140.54647 
	-19.454152 -108.86527 -800 0 -0.060956069 179.65378 -800 0 
	-800 0 -14.495941 140.54647 -800 0 -0.17263233 178.34791 
9.27 -1.0370232 141.38637 -800 0 -19.445159 -109.52331 -800 0 
	-800 0 -0.94849675 -77.720033 -800 0 -14.497568 139.88552 
	-19.445159 -109.52331 -800 0 -0.061080329 179.65335 -800 0 
	-800 0 -14.497568 139.88552 -800 0 -0.17258178 178.3486 
9.28 -1.0380142 140.05664 -800 0 -19.435913 -110.18352 -800 0 
	-800 0 -0.94983851 -79.053961 -800 0 -14.499212 139.22627 
	-19.435913 -110.18352 -800 0 -0.061204648 179.65295 -800 0 
	-800 0 -14.499212 139.22627 -800 0 -0.17252276 178.3492 
9.29 -1.0384601 138.72353 -800 0 -19.426419 -110.84592 -800 0 
	-800 0 -0.95074624 -80.384793 -800 0 -14.500864 138.56875 
	-19.426419 -110.84592 -800 0 -0.061328956 179.65257 -800 0 
	-800 0 -14.500864 138.56875 -800 0 -0.17245564 178.34973 
9.3 -1.0383623 137.38702 -800 0 -19.416684 -111.51056 -800 0 
	-800 0 -0.95122108 -81.712479 -800 0 -14.502512 137.91301 
	-19.416684 -111.51056 -800 0 -0.061453176 179.65222 -800 0 
	-800 0 -14.502512 137.91301 -800 0 -0.17238076 178.35017 
9.31 -1.0418888 136.03645 -800 0 -19.408522 -112.17649 -800 0 
	-800 0 -0.95485963 -83.000045 -800 0 -14.506288 137.27723 
	-19.408522 -112.17649 -800 0 -0.061578439 179.65179 -800 0 
	-800 0 -14.506288 137.27723 -800 0 -0.17229152 178.35037 
9.32 -1.0448366 134.68199 -800 0 -19.400103 -112.84477 -800 0 
	-800 0 -0.95808595 -84.28456 -800 0 -14.510039 136.64309 
	-19.400103 -112.84477 -800 0 -0.061703675 179.65139 -800 0 
	-800 0 -14.510039 136.64309 -800 0 -0.17219619 178.35049 
9.33 -1.0472063 133.32359 -800 0 -19.391433 -113.51544 -800 0 
	-800 0 -0.96090161 -85.565988 -800 0 -14.513758 136.01061 
	-19.391433 -113.51544 -800 0 -0.061828798 179.65102 -800 0 
	-800 0 -14.513758 136.01061 -800 0 -0.17209511 178.35054 
9.34 -1.0489985 131.96123 -800 0 -19.382521 -114.18852 -800 0 
	-800 0 -0.96330817 -86.844295 -800 0 -14.517434 135.3798 
	-19.382521 -114.18852 -800 0 -0.061953717 179.65068 -800 0 
	-800 0 -14.517434 135.3798 -800 0 -0.17198861 178.3505 
9.35 -1.0502137 130.59484 -800 0 -19.373373 -114.86405 -800 0 
	-800 0 -0.96530715 -88.119453 -800 0 -14.521059 134.75069 
	-19.373373 -114.86405 -800 0 -0.062078338 179.65037 -800 0 
	-800 0 -14.521059 134.75069 -800 0 -0.17187703 178.35039 
9.36 -1.0508524 129.2244 -800 0 -19.363997 -115.54206 -800 0 
	-800 0 -0.9669 -89.391436 -800 0 -14.524624 134.12328 
	-19.363997 -115.54206 -800 0 -0.062202561 179.65009 -800 0 
	-800 0 -14.524624 134.12328 -800 0 -0.17176071 178.35019 
9.37 -1.0509149 127.84986 -800 0 -19.354402 -116.22258 -800 0 
	-800 0 -0.96808815 -90.660223 -800 0 -14.52812 133.4976 
	-19.354402 -116.22258 -800 0 -0.062326286 179.64985 -800 0 
	-800 0 -14.52812 133.4976 -800 0 -0.17164 178.34992 
9.38 -1.0504017 126.47119 -800 0 -19.344595 -116.90562 -800 0 
	-800 0 -0.9688729 -91.925795 -800 0 -14.531537 132.87366 
	-19.344595 -116.90562 -800 0 -0.062449405 179.64964 -800 0 
	-800 0 -14.531537 132.87366 -800 0 -0.17151522 178.34956 
9.39 -1.0493132 125.08836 -800 0 -19.334585 -117.59123 -800 0 
	-800 0 -0.96925551 -93.188139 -800 0 -14.534867 132.25146 
	-19.334585 -117.59123 -800 0 -0.062571809 179.64947 -800 0 
	-800 0 -14.534867 132.25146 -800 0 -0.1713867 178.34912 
9.4 -1.0476495 123.70133 -800 0 -19.32438 -118.27942 -800 0 
	-800 0 -0.9692371 -94.447244 -800 0 -14.5381 131.63104 
	-19.32438 -118.27942 -800 0 -0.062693384 179.64933 -800 0 
	-800 0 -14.5381 131.63104 -800 0 -0.17125479 178.3486 
9.41 -1.0531316 122.31554 -800 0 -19.320527 -118.96246 -800 0 
	-800 0 -0.97281451 -95.742731 -800 0 -14.542546 130.99013 
	-19.320527 -118.96246 -800 0 -0.062776529 179.64919 -800 0 
	-800 0 -14.542546 130.99013 -800 0 -0.17114451 178.34857 
9.42 -1.0580298 120.92634 -800 0 -19.316507 -119.64776 -800 0 
	-800 0 -0.97595946 -97.035192 -800 0 -14.546896 130.35087 
	-19.316507 -119.64776 -800 0 -0.0628583 179.64907 -800 0 
	-800 0 -14.546896 130.35087 -800 0 -0.1710307 178.34846 
9.43 -1.0623473 119.53374 -800 0 -19.31233 -120.33535 -800 0 
	-800 0 -0.97867298 -98.324618 -800 0 -14.551139 129.71329 
	-19.31233 -120.33535 -800 0 -0.062938583 179.64899 -800 0 
	-800 0 -14.551139 129.71329 -800 0 -0.17091373 178.34828 
9.44 -1.0660872 118.13771 -800 0 -19.308004 -121.02523 -800 0 
	-800 0 -0.98095606 -99.611004 -800 0 -14.555268 129.07737 
	-19.308004 -121.02523 -800 0 -0.063017261 179.64893 -800 0 
	-800 0 -14.555268 129.07737 -800 0 -0.17079394 178.34801 
9.45 -1.0692525 116.73825 -800 0 -19.303538 -121.71742 -800 0 
	-800 0 -0.98280955 -100.89435 -800 0 -14.559272 128.44313 
	-19.303538 -121.71742 -800 0 -0.063094213 179.6489 -800 0 
	-800 0 -14.559272 128.44313 -800 0 -0.17067168 178.34765 
9.46 -1.0718463 115.33537 -800 0 -19.29894 -122.41194 -800 0 
	-800 0 -0.98423423 -102.17466 -800 0 -14.563141 127.81058 
	-19.29894 -122.41194 -800 0 -0.063169316 179.64891 -800 0 
	-800 0 -14.563141 127.81058 -800 0 -0.17054728 178.34722 
9.47 -1.0738718 113.92906 -800 0 -19.294221 -123.10879 -800 0 
	-800 0 -0.98523076 -103.45193 -800 0 -14.566868 127.17971 
	-19.294221 -123.10879 -800 0 -0.063242443 179.64895 -800 0 
	-800 0 -14.566868 127.17971 -800 0 -0.17042107 178.34671 
9.48 -1.0753321 112.51932 -800 0 -19.289388 -123.80797 -800 0 
	-800 0 -0.98579965 -104.72619 -800 0 -14.570441 126.55053 
	-19.289388 -123.80797 -800 0 -0.063313466 179.64902 -800 0 
	-800 0 -14.570441 126.55053 -800 0 -0.17029341 178.34612 
9.49 -1.0762304 111.10617 -800 0 -19.284452 -124.50951 -800 0 
	-800 0 -0.98594128 -105.99743 -800 0 -14.573852 125.92303 
	-19.284452 -124.50951 -800 0 -0.063382253 179.64912 -800 0 
	-800 0 -14.573852 125.92303 -800 0 -0.17016461 178.34545 
9.5 -1.0765699 109.6896 -800 0 -19.279422 -125.21341 -800 0 
	-800 0 -0.98565588 -107.26568 -800 0 -14.577092 125.29723 
	-19.279422 -125.21341 -800 0 -0.063448668 179.64925 -800 0 
	-800 0 -14.577092 125.29723 -800 0 -0.17003501 178.3447 
9.51 -1.0800179 108.24718 -800 0 -19.277835 -125.92363 -800 0 
	-800 0 -0.98736514 -108.56176 -800 0 -14.581667 124.65723 
	-19.277835 -125.92363 -800 0 -0.063498149 179.6494 -800 0 
	-800 0 -14.581667 124.65723 -800 0 -0.16990014 178.34443 
9.52 -1.0828389 106.8019 -800 0 -19.276173 -126.63608 -800 0 
	-800 0 -0.98861132 -109.85472 -800 0 -14.586085 124.01889 
	-19.276173 -126.63608 -800 0 -0.063544807 179.64958 -800 0 
	-800 0 -14.586085 124.01889 -800 0 -0.16976409 178.34408 
9.53 -1.0850384 105.35379 -800 0 -19.274446 -127.35075 -800 0 
	-800 0 -0.98939546 -111.14457 -800 0 -14.590336 123.38222 
	-19.274446 -127.35075 -800 0 -0.063588506 179.64979 -800 0 
	-800 0 -14.590336 123.38222 -800 0 -0.16962721 178.34365 
9.54 -1.086622 103.90289 -800 0 -19.272663 -128.06765 -800 0 
	-800 0 -0.98971849 -112.43133 -800 0 -14.594411 122.74721 
	-19.272663 -128.06765 -800 0 -0.063629107 179.65003 -800 0 
	-800 0 -14.594411 122.74721 -800 0 -0.16948983 178.34315 
9.55 -1.0875957 102.44923 -800 0 -19.270836 -128.78676 -800 0 
	-800 0 -0.98958119 -113.71503 -800 0 -14.598301 122.11385 
	-19.270836 -128.78676 -800 0 -0.063666471 179.6503 -800 0 
	-800 0 -14.598301 122.11385 -800 0 -0.16935226 178.34257 
9.56 -1.0879651 100.99287 -800 0 -19.268972 -129.50808 -800 0 
	-800 0 -0.98898419 -114.99568 -800 0 -14.601997 121.48214 
	-19.268972 -129.50808 -800 0 -0.063700455 179.6506 -800 0 
	-800 0 -14.601997 121.48214 -800 0 -0.16921483 178.34191 
9.57 -1.0877363 99.533841 -800 0 -19.267084 -130.23161 -800 0 
	-800 0 -0.98792799 -116.27331 -800 0 -14.60549 120.85207 
	-19.267084 -130.23161 -800 0 -0.063730914 179.65093 -800 0 
	-800 0 -14.60549 120.85207 -800 0 -0.16907785 178.34117 
9.58 -1.0869154 98.072202 -800 0 -19.265181 -130.95734 -800 0 
	-800 0 -0.98641288 -117.54795 -800 0 -14.60877 120.22363 
	-19.265181 -130.95734 -800 0 -0.063757705 179.65128 -800 0 
	-800 0 -14.60877 120.22363 -800 0 -0.16894165 178.34036 
9.59 -1.0855087 96.608002 -800 0 -19.263273 -131.68526 -800 0 
	-800 0 -0.984439 -118.81964 -800 0 -14.61183 119.59682 
	-19.263273 -131.68526 -800 0 -0.063780681 179.65167 -800 0 
	-800 0 -14.61183 119.59682 -800 0 -0.16880653 178.33947 
9.6 -1.0835223 95.141296 -800 0 -19.261371 -132.41535 -800 0 
	-800 0 -0.9820063 -120.08842 -800 0 -14.61466 118.97163 
	-19.261371 -132.41535 -800 0 -0.063799694 179.65208 -800 0 
	-800 0 -14.61466 118.97163 -800 0 -0.16867279 178.33851 
9.61 -1.0897364 93.664978 -800 0 -19.265097 -133.14038 -800 0 
	-800 0 -0.98406338 -121.3339 -800 0 -14.618834 118.35309 
	-19.265097 -133.14038 -800 0 -0.063789232 179.65237 -800 0 
	-800 0 -14.618834 118.35309 -800 0 -0.16857954 178.33745 
9.62 -1.0953077 92.186333 -800 0 -19.268818 -133.86736 -800 0 
	-800 0 -0.98571038 -122.57721 -800 0 -14.62276 117.73572 
	-19.268818 -133.86736 -800 0 -0.063774831 179.65267 -800 0 
	-800 0 -14.62276 117.73572 -800 0 -0.16848879 178.33634 
9.63 -1.1002426 90.705435 -800 0 -19.272546 -134.59628 -800 0 
	-800 0 -0.98694694 -123.8184 -800 0 -14.626429 117.11952 
	-19.272546 -134.59628 -800 0 -0.063756358 179.653 -800 0 
	-800 0 -14.626429 117.11952 -800 0 -0.16840079 178.33515 
9.64 -1.1045475 89.222363 -800 0 -19.276288 -135.3271 -800 0 
	-800 0 -0.98777246 -125.05752 -800 0 -14.629834 116.50446 
	-19.276288 -135.3271 -800 0 -0.063733684 179.65335 -800 0 
	-800 0 -14.629834 116.50446 -800 0 -0.16831583 178.33391 
9.65 -1.1082288 87.737197 -800 0 -19.280057 -136.05981 -800 0 
	-800 0 -0.9881861 -126.29463 -800 0 -14.632966 115.89052 
	-19.280057 -136.05981 -800 0 -0.063706677 179.65373 -800 0 
	-800 0 -14.632966 115.89052 -800 0 -0.16823415 178.3326 
9.66 -1.1112933 86.250021 -800 0 -19.283861 -136.79438 -800 0 
	-800 0 -0.98818682 -127.5298 -800 0 -14.635817 115.27769 
	-19.283861 -136.79438 -800 0 -0.063675206 179.65412 -800 0 
	-800 0 -14.635817 115.27769 -800 0 -0.16815602 178.33123 
9.67 -1.1137477 84.760922 -800 0 -19.28771 -137.53078 -800 0 
	-800 0 -0.98777328 -128.76308 -800 0 -14.63838 114.66594 
	-19.28771 -137.53078 -800 0 -0.063639142 179.65454 -800 0 
	-800 0 -14.63838 114.66594 -800 0 -0.16808169 178.3298 
9.68 -1.1155989 83.269988 -800 0 -19.291614 -138.26898 -800 0 
	-800 0 -0.98694392 -129.99455 -800 0 -14.640647 114.05526 
	-19.291614 -138.26898 -800 0 -0.063598355 179.65498 -800 0 
	-800 0 -14.640647 114.05526 -800 0 -0.16801142 178.32831 
9.69 -1.1168539 81.777312 -800 0 -19.295583 -139.00895 -800 0 
	-800 0 -0.98569687 -131.22427 -800 0 -14.64261 113.44563 
	-19.295583 -139.00895 -800 0 -0.063552719 179.65544 -800 0 
	-800 0 -14.64261 113.44563 -800 0 -0.16794544 178.32676 
9.7 -1.1175199 80.28299 -800 0 -19.299628 -139.75065 -800 0 
	-800 0 -0.98403 -132.45231 -800 0 -14.64426 112.83702 
	-19.299628 -139.75065 -800 0 -0.063502106 179.65593 -800 0 
	-800 0 -14.64426 112.83702 -800 0 -0.16788401 178.32516 
9.71 -1.1197437 78.933122 -800 0 -19.308393 -140.41066 -800 0 
	-800 0 -0.98545067 -133.62879 -800 0 -14.647362 112.25376 
	-19.308393 -140.41066 -800 0 -0.063414889 179.6559 -800 0 
	-800 0 -14.647362 112.25376 -800 0 -0.16780806 178.32396 
9.72 -1.1214426 77.583609 -800 0 -19.317148 -141.07169 -800 0 
	-800 0 -0.98649338 -134.80395 -800 0 -14.650238 111.67134 
	-19.317148 -141.07169 -800 0 -0.063324417 179.65589 -800 0 
	-800 0 -14.650238 111.67134 -800 0 -0.16773493 178.32272 
9.73 -1.1226276 76.234512 -800 0 -19.325898 -141.73369 -800 0 
	-800 0 -0.98715646 -135.97787 -800 0 -14.652883 111.08973 
	-19.325898 -141.73369 -800 0 -0.063230618 179.65589 -800 0 
	-800 0 -14.652883 111.08973 -800 0 -0.16766481 178.32143 
9.74 -1.12331 74.885888 -800 0 -19.334649 -142.39667 -800 0 
	-800 0 -0.98743814 -137.15058 -800 0 -14.65529 110.50891 
	-19.334649 -142.39667 -800 0 -0.06313342 179.65589 -800 0 
	-800 0 -14.65529 110.50891 -800 0 -0.16759788 178.32009 
9.75 -1.1235009 73.537798 -800 0 -19.343408 -143.06058 -800 0 
	-800 0 -0.9873365 -138.32213 -800 0 -14.657454 109.92886 
	-19.343408 -143.06058 -800 0 -0.063032753 179.65591 -800 0 
	-800 0 -14.657454 109.92886 -800 0 -0.16753435 178.3187 
9.76 -1.1232117 72.190301 -800 0 -19.352183 -143.72541 -800 0 
	-800 0 -0.98684945 -139.49258 -800 0 -14.659369 109.34955 
	-19.352183 -143.72541 -800 0 -0.062928548 179.65594 -800 0 
	-800 0 -14.659369 109.34955 -800 0 -0.16747439 178.31727 
9.77 -1.1224533 70.843457 -800 0 -19.360978 -144.39113 -800 0 
	-800 0 -0.98597479 -140.66197 -800 0 -14.661029 108.77097 
	-19.360978 -144.39113 -800 0 -0.062820738 179.65598 -800 0 
	-800 0 -14.661029 108.77097 -800 0 -0.16741818 178.3158 
9.78 -1.121237 69.497326 -800 0 -19.3698 -145.05771 -800 0 
	-800 0 -0.98471014 -141.83038 -800 0 -14.662429 108.1931 
	-19.3698 -145.05771 -800 0 -0.062709258 179.65602 -800 0 
	-800 0 -14.662429 108.1931 -800 0 -0.16736591 178.31428 
9.79 -1.1195739 68.151969 -800 0 -19.378656 -145.72512 -800 0 
	-800 0 -0.98305296 -142.99784 -800 0 -14.663563 107.6159 
	-19.378656 -145.72512 -800 0 -0.062594042 179.65608 -800 0 
	-800 0 -14.663563 107.6159 -800 0 -0.16731774 178.31272 
9.8 -1.117475 66.807446 -800 0 -19.387551 -146.39335 -800 0 
	-800 0 -0.98100056 -144.16442 -800 0 -14.664425 107.03936 
	-19.387551 -146.39335 -800 0 -0.062475029 179.65615 -800 0 
	-800 0 -14.664425 107.03936 -800 0 -0.16727385 178.31112 
9.81 -1.1113563 65.451542 -800 0 -19.393926 -147.05215 -800 0 
	-800 0 -0.98199987 -145.35715 -800 0 -14.668859 106.4506 
	-19.393926 -147.05215 -800 0 -0.062397605 179.65591 -800 0 
	-800 0 -14.668859 106.4506 -800 0 -0.16713368 178.30933 
9.82 -1.1046873 64.096313 -800 0 -19.400275 -147.71227 -800 0 
	-800 0 -0.98256832 -146.54838 -800 0 -14.672967 105.86274 
	-19.400275 -147.71227 -800 0 -0.062316806 179.6557 -800 0 
	-800 0 -14.672967 105.86274 -800 0 -0.16699925 178.30749 
9.83 -1.0974826 62.741824 -800 0 -19.406606 -148.37368 -800 0 
	-800 0 -0.98270453 -147.73819 -800 0 -14.676744 105.27575 
	-19.406606 -148.37368 -800 0 -0.062232552 179.6555 -800 0 
	-800 0 -14.676744 105.27575 -800 0 -0.16687074 178.30559 
9.84 -1.0897564 61.388146 -800 0 -19.412926 -149.03634 -800 0 
	-800 0 -0.98240689 -148.92665 -800 0 -14.680185 104.68961 
	-19.412926 -149.03634 -800 0 -0.062144762 179.65531 -800 0 
	-800 0 -14.680185 104.68961 -800 0 -0.16674831 178.30366 
9.85 -1.0815233 60.035344 -800 0 -19.419243 -149.70024 -800 0 
	-800 0 -0.98167355 -150.11385 -800 0 -14.683284 104.10429 
	-19.419243 -149.70024 -800 0 -0.062053359 179.65514 -800 0 
	-800 0 -14.683284 104.10429 -800 0 -0.16663213 178.30167 
9.86 -1.0727976 58.683487 -800 0 -19.425565 -150.36533 -800 0 
	-800 0 -0.98050246 -151.29986 -800 0 -14.686036 103.51976 
	-19.425565 -150.36533 -800 0 -0.061958264 179.65498 -800 0 
	-800 0 -14.686036 103.51976 -800 0 -0.16652234 178.29964 
9.87 -1.0635936 57.332643 -800 0 -19.431899 -151.03158 -800 0 
	-800 0 -0.9788913 -152.48476 -800 0 -14.688435 102.93598 
	-19.431899 -151.03158 -800 0 -0.061859405 179.65484 -800 0 
	-800 0 -14.688435 102.93598 -800 0 -0.16641911 178.29757 
9.88 -1.0539256 55.982877 -800 0 -19.438252 -151.69895 -800 0 
	-800 0 -0.97683751 -153.66863 -800 0 -14.690476 102.35293 
	-19.438252 -151.69895 -800 0 -0.061756706 179.6547 -800 0 
	-800 0 -14.690476 102.35293 -800 0 -0.16632258 178.29546 
9.89 -1.0438079 54.634258 -800 0 -19.444632 -152.3674 -800 0 
	-800 0 -0.9743383 -154.85155 -800 0 -14.692155 101.77057 
	-19.444632 -152.3674 -800 0 -0.061650096 179.65458 -800 0 
	-800 0 -14.692155 101.77057 -800 0 -0.16623289 178.2933 
9.9 -1.0332546 53.286852 -800 0 -19.451045 -153.03691 -800 0 
	-800 0 -0.97139062 -156.0336 -800 0 -14.693466 101.18887 
	-19.451045 -153.03691 -800 0 -0.061539505 179.65448 -800 0 
	-800 0 -14.693466 101.18887 -800 0 -0.1661502 178.29111 
9.91 -1.0356332 51.809173 -800 0 -19.469052 -153.75368 -800 0 
	-800 0 -0.97575228 -157.31929 -800 0 -14.696903 100.55087 
	-19.469052 -153.75368 -800 0 -0.06134812 179.65452 -800 0 
	-800 0 -14.696903 100.55087 -800 0 -0.16609309 178.29014 
9.92 -1.0372913 50.334002 -800 0 -19.487123 -154.47086 -800 0 
	-800 0 -0.97958972 -158.60513 -800 0 -14.699988 99.913084 
	-19.487123 -154.47086 -800 0 -0.061152309 179.65457 -800 0 
	-800 0 -14.699988 99.913084 -800 0 -0.16604166 178.28915 
9.93 -1.038247 48.861485 -800 0 -19.505262 -155.18839 -800 0 
	-800 0 -0.98289958 -159.89121 -800 0 -14.702717 99.275484 
	-19.505262 -155.18839 -800 0 -0.060952049 179.65461 -800 0 
	-800 0 -14.702717 99.275484 -800 0 -0.16599602 178.28812 
9.94 -1.0385188 47.391762 -800 0 -19.523476 -155.90621 -800 0 
	-800 0 -0.9856784 -161.17764 -800 0 -14.705085 98.63802 
	-19.523476 -155.90621 -800 0 -0.060747322 179.65465 -800 0 
	-800 0 -14.705085 98.63802 -800 0 -0.16595632 178.28707 
9.95 -1.038125 45.924973 -800 0 -19.541767 -156.62427 -800 0 
	-800 0 -0.98792266 -162.46451 -800 0 -14.707088 98.000645 
	-19.541767 -156.62427 -800 0 -0.060538111 179.65469 -800 0 
	-800 0 -14.707088 98.000645 -800 0 -0.16592268 178.28599 
9.96 -1.0370843 44.461254 -800 0 -19.560142 -157.34251 -800 0 
	-800 0 -0.98962881 -163.75192 -800 0 -14.708723 97.363313 
	-19.560142 -157.34251 -800 0 -0.060324406 179.65472 -800 0 
	-800 0 -14.708723 97.363313 -800 0 -0.1658952 178.28489 
9.97 -1.0354151 43.000739 -800 0 -19.578604 -158.06087 -800 0 
	-800 0 -0.99079335 -165.03998 -800 0 -14.709985 96.725974 
	-19.578604 -158.06087 -800 0 -0.060106197 179.65475 -800 0 
	-800 0 -14.709985 96.725974 -800 0 -0.16587399 178.28376 
9.98 -1.0331362 41.543557 -800 0 -19.597158 -158.7793 -800 0 
	-800 0 -0.99141291 -166.32877 -800 0 -14.710872 96.08858 
	-19.597158 -158.7793 -800 0 -0.059883479 179.65477 -800 0 
	-800 0 -14.710872 96.08858 -800 0 -0.16585915 178.28262 
9.99 -1.0302661 40.089837 -800 0 -19.615808 -159.49773 -800 0 
	-800 0 -0.99148434 -167.61843 -800 0 -14.711381 95.451077 
	-19.615808 -159.49773 -800 0 -0.059656252 179.65479 -800 0 
	-800 0 -14.711381 95.451077 -800 0 -0.16585078 178.28146 
10 -1.0268234 38.639701 -800 0 -19.634557 -160.21611 -800 0 
	-800 0 -0.9910049 -168.90904 -800 0 -14.71151 94.813413 
	-19.634557 -160.21611 -800 0 -0.059424517 179.6548 -800 0 
	-800 0 -14.71151 94.813413 -800 0 -0.16584895 178.28029 
10.01 -1.0475885 36.975639 -800 0 -19.663537 -161.02695 -800 0 
	-800 0 -0.99589713 -170.17916 -800 0 -14.711692 94.170025 
	-19.663537 -161.02695 -800 0 -0.059169975 179.65526 -800 0 
	-800 0 -14.711692 94.170025 -800 0 -0.16595099 178.27911 
10.02 -1.0675377 35.312771 -800 0 -19.692822 -161.8375 -800 0 
	-800 0 -1.00041 -171.45202 -800 0 -14.711486 93.525559 
	-19.692822 -161.8375 -800 0 -0.058908384 179.65571 -800 0 
	-800 0 -14.711486 93.525559 -800 0 -0.16606032 178.27793 
10.03 -1.0866721 33.651383 -800 0 -19.722412 -162.64765 -800 0 
	-800 0 -1.004538 -172.72777 -800 0 -14.71089 92.879952 
	-19.722412 -162.64765 -800 0 -0.05863983 179.65613 -800 0 
	-800 0 -14.71089 92.879952 -800 0 -0.16617699 178.27676 
10.04 -1.1049934 31.991756 -800 0 -19.752307 -163.4573 -800 0 
	-800 0 -1.0082759 -174.00659 -800 0 -14.709902 92.233137 
	-19.752307 -163.4573 -800 0 -0.058364407 179.65653 -800 0 
	-800 0 -14.709902 92.233137 -800 0 -0.16630104 178.27561 
10.05 -1.1225038 30.334176 -800 0 -19.782504 -164.26634 -800 0 
	-800 0 -1.0116188 -175.28865 -800 0 -14.70852 91.585046 
	-19.782504 -164.26634 -800 0 -0.058082213 179.6569 -800 0 
	-800 0 -14.70852 91.585046 -800 0 -0.16643249 178.27447 
10.06 -1.1392063 28.678922 -800 0 -19.813003 -165.07467 -800 0 
	-800 0 -1.0145625 -176.57414 -800 0 -14.706744 90.935603 
	-19.813003 -165.07467 -800 0 -0.057793356 179.65725 -800 0 
	-800 0 -14.706744 90.935603 -800 0 -0.16657135 178.27334 
10.07 -1.1551044 27.026276 -800 0 -19.843802 -165.88218 -800 0 
	-800 0 -1.0171043 -177.86327 -800 0 -14.704574 90.284727 
	-19.843802 -165.88218 -800 0 -0.057497948 179.65758 -800 0 
	-800 0 -14.704574 90.284727 -800 0 -0.16671761 178.27223 
10.08 -1.1702021 25.376516 -800 0 -19.874898 -166.68876 -800 0 
	-800 0 -1.019244 -179.15625 -800 0 -14.702014 89.632332 
	-19.874898 -166.68876 -800 0 -0.057196107 179.65788 -800 0 
	-800 0 -14.702014 89.632332 -800 0 -0.16687122 178.27115 
10.09 -1.1845042 23.729916 -800 0 -19.90629 -167.49432 -800 0 
	-800 0 -1.0209855 179.54669 -800 0 -14.699067 88.978319 
	-19.90629 -167.49432 -800 0 -0.056887957 179.65815 -800 0 
	-800 0 -14.699067 88.978319 -800 0 -0.16703205 178.27008 
10.1 -1.1980161 22.086751 -800 0 -19.937974 -168.29875 -800 0 
	-800 0 -1.0223399 178.24527 -800 0 -14.695743 88.322581 
	-19.937974 -168.29875 -800 0 -0.056573627 179.65839 -800 0 
	-800 0 -14.695743 88.322581 -800 0 -0.16719995 178.26905 
10.11 -1.1980489 20.715745 -800 0 -19.961879 -168.96455 -800 0 
	-800 0 -1.0258748 176.95526 -800 0 -14.696709 87.68116 
	-19.961879 -168.96455 -800 0 -0.056334373 179.65778 -800 0 
	-800 0 -14.696709 87.68116 -800 0 -0.16721608 178.26808 
10.12 -1.197567 19.348836 -800 0 -19.985832 -169.63002 -800 0 
	-800 0 -1.028881 175.66275 -800 0 -14.697306 87.038844 
	-19.985832 -169.63002 -800 0 -0.056091771 179.65715 -800 0 
	-800 0 -14.697306 87.038844 -800 0 -0.16723856 178.26713 
10.13 -1.1965866 17.986122 -800 0 -20.009835 -170.29509 -800 0 
	-800 0 -1.0313473 174.36765 -800 0 -14.697532 86.39558 
	-20.009835 -170.29509 -800 0 -0.055845854 179.65652 -800 0 
	-800 0 -14.697532 86.39558 -800 0 -0.1672674 178.26618 
10.14 -1.1951236 16.627697 -800 0 -20.033888 -170.95971 -800 0 
	-800 0 -1.0332603 173.06985 -800 0 -14.697383 85.751308 
	-20.033888 -170.95971 -800 0 -0.055596659 179.65588 -800 0 
	-800 0 -14.697383 85.751308 -800 0 -0.16730264 178.26525 
10.15 -1.193194 15.273653 -800 0 -20.057993 -171.62383 -800 0 
	-800 0 -1.0346026 171.76924 -800 0 -14.696857 85.105956 
	-20.057993 -171.62383 -800 0 -0.055344221 179.65522 -800 0 
	-800 0 -14.696857 85.105956 -800 0 -0.16734424 178.26433 
10.16 -1.1908133 13.924078 -800 0 -20.082149 -172.28737 -800 0 
	-800 0 -1.0353547 170.46562 -800 0 -14.695953 84.459428 
	-20.082149 -172.28737 -800 0 -0.05508858 179.65455 -800 0 
	-800 0 -14.695953 84.459428 -800 0 -0.16739214 178.26343 
10.17 -1.187997 12.579058 -800 0 -20.106359 -172.9503 -800 0 
	-800 0 -1.035505 169.15871 -800 0 -14.694677 83.811607 
	-20.106359 -172.9503 -800 0 -0.054829778 179.65387 -800 0 
	-800 0 -14.694677 83.811607 -800 0 -0.16744612 178.26255 
10.18 -1.1847604 11.238673 -800 0 -20.130622 -173.61255 -800 0 
	-800 0 -1.0350761 167.84818 -800 0 -14.693048 83.16243 
	-20.130622 -173.61255 -800 0 -0.054567857 179.65318 -800 0 
	-800 0 -14.693048 83.16243 -800 0 -0.1675059 178.26169 
10.19 -1.1811186 9.9030016 -800 0 -20.154938 -174.27406 -800 0 
	-800 0 -1.0341229 166.53398 -800 0 -14.691085 82.511986 
	-20.154938 -174.27406 -800 0 -0.054302862 179.65248 -800 0 
	-800 0 -14.691085 82.511986 -800 0 -0.16757148 178.26085 
10.2 -1.1770864 8.5721193 -800 0 -20.179308 -174.93479 -800 0 
	-800 0 -1.0326592 165.21647 -800 0 -14.688775 81.860413 
	-20.179308 -174.93479 -800 0 -0.054034841 179.65176 -800 0 
	-800 0 -14.688775 81.860413 -800 0 -0.16764328 178.26003 
10.21 -1.1773608 7.1950165 -800 0 -20.209488 -175.60346 -800 0 
	-800 0 -1.0371375 163.89192 -800 0 -14.688868 81.196631 
	-20.209488 -175.60346 -800 0 -0.053746652 179.65088 -800 0 
	-800 0 -14.688868 81.196631 -800 0 -0.167709 178.25976 
10.22 -1.1770935 5.8237969 -800 0 -20.239676 -176.27118 -800 0 
	-800 0 -1.0411235 162.5632 -800 0 -14.688658 80.531125 
	-20.239676 -176.27118 -800 0 -0.053455937 179.64999 -800 0 
	-800 0 -14.688658 80.531125 -800 0 -0.16777875 178.25952 
10.23 -1.1763041 4.4585458 -800 0 -20.26987 -176.93788 -800 0 
	-800 0 -1.0446107 161.23021 -800 0 -14.688149 79.863858 
	-20.26987 -176.93788 -800 0 -0.053162757 179.64908 -800 0 
	-800 0 -14.688149 79.863858 -800 0 -0.16785247 178.25932 
10.24 -1.175012 3.0993436 -800 0 -20.300068 -177.60351 -800 0 
	-800 0 -1.0475904 159.89284 -800 0 -14.687343 79.194793 
	-20.300068 -177.60351 -800 0 -0.052867173 179.64815 -800 0 
	-800 0 -14.687343 79.194793 -800 0 -0.16793012 178.25915 
10.25 -1.1732363 1.7462653 -800 0 -20.33027 -178.26802 -800 0 
	-800 0 -1.050053 158.55099 -800 0 -14.686241 78.523884 
	-20.33027 -178.26802 -800 0 -0.052569248 179.64721 -800 0 
	-800 0 -14.686241 78.523884 -800 0 -0.16801166 178.25903 
10.26 -1.170996 0.3993811 -800 0 -20.360473 -178.93135 -800 0 
	-800 0 -1.0519881 157.20457 -800 0 -14.684844 77.851086 
	-20.360473 -178.93135 -800 0 -0.052269045 179.64625 -800 0 
	-800 0 -14.684844 77.851086 -800 0 -0.168097 178.25894 
10.27 -1.1683094 -0.94124385 -800 0 -20.390677 -179.59344 -800 0 
	-800 0 -1.053385 155.85349 -800 0 -14.683154 77.17635 
	-20.390677 -179.59344 -800 0 -0.051966626 179.64527 -800 0 
	-800 0 -14.683154 77.17635 -800 0 -0.16818608 178.2589 
10.28 -1.1651948 -2.2755491 -800 0 -20.420878 179.74576 -800 0 
	-800 0 -1.0542324 154.49764 -800 0 -14.681172 76.499624 
	-20.420878 179.74576 -800 0 -0.051662058 179.64427 -800 0 
	-800 0 -14.681172 76.499624 -800 0 -0.16827877 178.2589 
10.29 -1.16167 -3.6034788 -800 0 -20.451077 179.0863 -800 0 
	-800 0 -1.0545187 153.13694 -800 0 -14.678901 75.820859 
	-20.451077 179.0863 -800 0 -0.051355404 179.64325 -800 0 
	-800 0 -14.678901 75.820859 -800 0 -0.16837498 178.25894 
10.3 -1.1577524 -4.9249817 -800 0 -20.48127 178.42824 -800 0 
	-800 0 -1.0542321 151.77129 -800 0 -14.676343 75.140004 
	-20.48127 178.42824 -800 0 -0.051046732 179.64222 -800 0 
	-800 0 -14.676343 75.140004 -800 0 -0.16847457 178.25904 
10.31 -1.1563842 -6.1989447 -800 0 -20.510831 177.8051 -800 0 
	-800 0 -1.0611151 150.3974 -800 0 -14.677644 74.45336 
	-20.510831 177.8051 -800 0 -0.050779444 179.64095 -800 0 
	-800 0 -14.677644 74.45336 -800 0 -0.16851564 178.25933 
10.32 -1.1546219 -7.4672406 -800 0 -20.54035 177.18299 -800 0 
	-800 0 -1.0674765 149.0181 -800 0 -14.678702 73.764498 
	-20.54035 177.18299 -800 0 -0.05051028 179.63966 -800 0 
	-800 0 -14.678702 73.764498 -800 0 -0.16855877 178.25967 
10.33 -1.1524811 -8.729826 -800 0 -20.569824 176.56194 -800 0 
	-800 0 -1.0733043 147.6333 -800 0 -14.67952 73.073369 
	-20.569824 176.56194 -800 0 -0.05023929 179.63836 -800 0 
	-800 0 -14.67952 73.073369 -800 0 -0.16860377 178.26005 
10.34 -1.1499772 -9.9866616 -800 0 -20.599253 175.94201 -800 0 
	-800 0 -1.0785866 146.2429 -800 0 -14.680103 72.379925 
	-20.599253 175.94201 -800 0 -0.049966527 179.63704 -800 0 
	-800 0 -14.680103 72.379925 -800 0 -0.16865047 178.26049 
10.35 -1.147125 -11.237711 -800 0 -20.628633 175.32325 -800 0 
	-800 0 -1.083311 144.84683 -800 0 -14.680453 71.684119 
	-20.628633 175.32325 -800 0 -0.049692043 179.63572 -800 0 
	-800 0 -14.680453 71.684119 -800 0 -0.16869866 178.26099 
10.36 -1.1439391 -12.482943 -800 0 -20.657964 174.7057 -800 0 
	-800 0 -1.0874648 143.445 -800 0 -14.680576 70.985902 
	-20.657964 174.7057 -800 0 -0.049415891 179.63437 -800 0 
	-800 0 -14.680576 70.985902 -800 0 -0.16874815 178.26153 
10.37 -1.1404337 -13.722327 -800 0 -20.687243 174.08941 -800 0 
	-800 0 -1.0910352 142.03733 -800 0 -14.680475 70.285226 
	-20.687243 174.08941 -800 0 -0.049138125 179.63302 -800 0 
	-800 0 -14.680475 70.285226 -800 0 -0.16879873 178.26214 
10.38 -1.1366227 -14.955839 -800 0 -20.716469 173.47443 -800 0 
	-800 0 -1.094009 140.62375 -800 0 -14.680155 69.582046 
	-20.716469 173.47443 -800 0 -0.048858795 179.63164 -800 0 
	-800 0 -14.680155 69.582046 -800 0 -0.16885016 178.2628 
10.39 -1.1325195 -16.183456 -800 0 -20.74564 172.86079 -800 0 
	-800 0 -1.0963726 139.20418 -800 0 -14.679622 68.876313 
	-20.74564 172.86079 -800 0 -0.048577956 179.63026 -800 0 
	-800 0 -14.679622 68.876313 -800 0 -0.16890223 178.26353 
10.4 -1.1281373 -17.405158 -800 0 -20.774753 172.24854 -800 0 
	-800 0 -1.0981126 137.77855 -800 0 -14.678879 68.16798 
	-20.774753 172.24854 -800 0 -0.048295661 179.62886 -800 0 
	-800 0 -14.678879 68.16798 -800 0 -0.16895469 178.26431 
10.41 -1.1252176 -18.594399 -800 0 -20.806082 171.66691 -800 0 
	-800 0 -1.1023411 136.40814 -800 0 -14.680003 67.486167 
	-20.806082 171.66691 -800 0 -0.048030359 179.62718 -800 0 
	-800 0 -14.680003 67.486167 -800 0 -0.16896791 178.26477 
10.42 -1.1219633 -19.777507 -800 0 -20.837291 171.08637 -800 0 
	-800 0 -1.1060325 135.03218 -800 0 -14.680945 66.801986 
	-20.837291 171.08637 -800 0 -0.047764034 179.62549 -800 0 
	-800 0 -14.680945 66.801986 -800 0 -0.16898144 178.26528 
10.43 -1.1183901 -20.954475 -800 0 -20.868376 170.50696 -800 0 
	-800 0 -1.1091749 133.65062 -800 0 -14.681711 66.115397 
	-20.868376 170.50696 -800 0 -0.047496725 179.62379 -800 0 
	-800 0 -14.681711 66.115397 -800 0 -0.16899504 178.26585 
10.44 -1.1145133 -22.125301 -800 0 -20.899337 169.92872 -800 0 
	-800 0 -1.1117565 132.26339 -800 0 -14.682305 65.426356 
	-20.899337 169.92872 -800 0 -0.047228472 179.62207 -800 0 
	-800 0 -14.682305 65.426356 -800 0 -0.16900846 178.26647 
10.45 -1.1103479 -23.289983 -800 0 -20.93017 169.35169 -800 0 
	-800 0 -1.113765 130.87045 -800 0 -14.682733 64.734825 
	-20.93017 169.35169 -800 0 -0.046959315 179.62035 -800 0 
	-800 0 -14.682733 64.734825 -800 0 -0.16902147 178.26716 
10.46 -1.1059082 -24.448524 -800 0 -20.960875 168.77591 -800 0 
	-800 0 -1.1151884 129.47173 -800 0 -14.683002 64.040763 
	-20.960875 168.77591 -800 0 -0.046689294 179.61861 -800 0 
	-800 0 -14.683002 64.040763 -800 0 -0.1690338 178.2679 
10.47 -1.1012084 -25.600931 -800 0 -20.991448 168.20142 -800 0 
	-800 0 -1.1160142 128.06721 -800 0 -14.683115 63.34413 
	-20.991448 168.20142 -800 0 -0.046418446 179.61686 -800 0 
	-800 0 -14.683115 63.34413 -800 0 -0.16904518 178.26871 
10.48 -1.096262 -26.747212 -800 0 -21.021888 167.62825 -800 0 
	-800 0 -1.1162302 126.65683 -800 0 -14.683081 62.644889 
	-21.021888 167.62825 -800 0 -0.046146811 179.6151 -800 0 
	-800 0 -14.683081 62.644889 -800 0 -0.16905534 178.26958 
10.49 -1.0910821 -27.887378 -800 0 -21.052194 167.05644 -800 0 
	-800 0 -1.1158239 125.24057 -800 0 -14.682904 61.943001 
	-21.052194 167.05644 -800 0 -0.045874427 179.61333 -800 0 
	-800 0 -14.682904 61.943001 -800 0 -0.16906399 178.27051 
10.5 -1.0856816 -29.021443 -800 0 -21.082362 166.48602 -800 0 
	-800 0 -1.1147829 123.8184 -800 0 -14.682592 61.238429 
	-21.082362 166.48602 -800 0 -0.045601331 179.61155 -800 0 
	-800 0 -14.682592 61.238429 -800 0 -0.16907083 178.27151 
10.51 -1.0851553 -30.199394 -800 0 -21.116073 165.90586 -800 0 
	-800 0 -1.1214149 122.39106 -800 0 -14.686569 60.531188 
	-21.116073 165.90586 -800 0 -0.045341369 179.60965 -800 0 
	-800 0 -14.686569 60.531188 -800 0 -0.16900524 178.2726 
10.52 -1.0843105 -31.370948 -800 0 -21.14961 165.32705 -800 0 
	-800 0 -1.1274697 120.95747 -800 0 -14.690465 59.821275 
	-21.14961 165.32705 -800 0 -0.045080609 179.60773 -800 0 
	-800 0 -14.690465 59.821275 -800 0 -0.16893631 178.27376 
10.53 -1.0831612 -32.536112 -800 0 -21.182972 164.74962 -800 0 
	-800 0 -1.1329344 119.5176 -800 0 -14.694286 59.108662 
	-21.182972 164.74962 -800 0 -0.044819096 179.60581 -800 0 
	-800 0 -14.694286 59.108662 -800 0 -0.16886373 178.27497 
10.54 -1.0817213 -33.694894 -800 0 -21.216154 164.17363 -800 0 
	-800 0 -1.137796 118.07145 -800 0 -14.698042 58.393321 
	-21.216154 164.17363 -800 0 -0.044556871 179.60387 -800 0 
	-800 0 -14.698042 58.393321 -800 0 -0.16878717 178.27625 
10.55 -1.0800038 -34.847308 -800 0 -21.249153 163.5991 -800 0 
	-800 0 -1.1420414 116.61898 -800 0 -14.701738 57.675225 
	-21.249153 163.5991 -800 0 -0.044293976 179.60192 -800 0 
	-800 0 -14.701738 57.675225 -800 0 -0.16870631 178.27758 
10.56 -1.0780216 -35.993368 -800 0 -21.281967 163.02609 -800 0 
	-800 0 -1.1456575 115.16022 -800 0 -14.705384 56.954349 
	-21.281967 163.02609 -800 0 -0.044030452 179.59995 -800 0 
	-800 0 -14.705384 56.954349 -800 0 -0.16862079 178.27897 
10.57 -1.0757872 -37.133091 -800 0 -21.314592 162.45461 -800 0 
	-800 0 -1.1486313 113.69514 -800 0 -14.708987 56.230668 
	-21.314592 162.45461 -800 0 -0.043766338 179.59798 -800 0 
	-800 0 -14.708987 56.230668 -800 0 -0.16853029 178.28043 
10.58 -1.0733123 -38.2665 -800 0 -21.347027 161.88472 -800 0 
	-800 0 -1.1509498 112.22377 -800 0 -14.712556 55.504158 
	-21.347027 161.88472 -800 0 -0.043501674 179.59599 -800 0 
	-800 0 -14.712556 55.504158 -800 0 -0.16843443 178.28194 
10.59 -1.0706085 -39.393615 -800 0 -21.379266 161.31645 -800 0 
	-800 0 -1.1525998 110.74612 -800 0 -14.716098 54.774798 
	-21.379266 161.31645 -800 0 -0.043236498 179.59399 -800 0 
	-800 0 -14.716098 54.774798 -800 0 -0.16833286 178.28351 
10.6 -1.0676869 -40.514463 -800 0 -21.411309 160.74983 -800 0 
	-800 0 -1.1535685 109.26221 -800 0 -14.719623 54.042566 
	-21.411309 160.74983 -800 0 -0.042970848 179.59198 -800 0 
	-800 0 -14.719623 54.042566 -800 0 -0.16822522 178.28515 
10.61 -1.0694088 -41.666707 -800 0 -21.44638 160.18642 -800 0 
	-800 0 -1.161261 107.71189 -800 0 -14.728117 53.274984 
	-21.44638 160.18642 -800 0 -0.042724845 179.5899 -800 0 
	-800 0 -14.728117 53.274984 -800 0 -0.16800875 178.28752 
10.62 -1.070787 -42.812552 -800 0 -21.481243 159.62456 -800 0 
	-800 0 -1.1682811 106.15496 -800 0 -14.736698 52.504522 
	-21.481243 159.62456 -800 0 -0.042478364 179.58781 -800 0 
	-800 0 -14.736698 52.504522 -800 0 -0.16778231 178.28995 
10.63 -1.0718339 -43.952006 -800 0 -21.515895 159.0643 -800 0 
	-800 0 -1.1746144 104.59148 -800 0 -14.745375 51.731173 
	-21.515895 159.0643 -800 0 -0.042231443 179.5857 -800 0 
	-800 0 -14.745375 51.731173 -800 0 -0.16754553 178.29242 
10.64 -1.0725617 -45.085081 -800 0 -21.55033 158.50565 -800 0 
	-800 0 -1.1802466 103.02152 -800 0 -14.754158 50.954933 
	-21.55033 158.50565 -800 0 -0.041984118 179.58358 -800 0 
	-800 0 -14.754158 50.954933 -800 0 -0.167298 178.29494 
10.65 -1.072982 -46.211792 -800 0 -21.584546 157.94866 -800 0 
	-800 0 -1.1851638 101.44514 -800 0 -14.763057 50.1758 
	-21.584546 157.94866 -800 0 -0.041736426 179.58145 -800 0 
	-800 0 -14.763057 50.1758 -800 0 -0.16703934 178.2975 
10.66 -1.0731063 -47.332155 -800 0 -21.618538 157.39336 -800 0 
	-800 0 -1.1893521 99.862422 -800 0 -14.772082 49.393773 
	-21.618538 157.39336 -800 0 -0.0414884 179.57931 -800 0 
	-800 0 -14.772082 49.393773 -800 0 -0.16676915 178.3001 
10.67 -1.0729455 -48.44619 -800 0 -21.652304 156.83978 -800 0 
	-800 0 -1.192798 98.273464 -800 0 -14.781245 48.608852 
	-21.652304 156.83978 -800 0 -0.041240074 179.57715 -800 0 
	-800 0 -14.781245 48.608852 -800 0 -0.16648703 178.30275 
10.68 -1.0725103 -49.553919 -800 0 -21.685838 156.28795 -800 0 
	-800 0 -1.1954882 96.678361 -800 0 -14.790554 47.821042 
	-21.685838 156.28795 -800 0 -0.04099148 179.57499 -800 0 
	-800 0 -14.790554 47.821042 -800 0 -0.16619259 178.30544 
10.69 -1.071811 -50.655367 -800 0 -21.719139 155.7379 -800 0 
	-800 0 -1.19741 95.077222 -800 0 -14.800021 47.030346 
	-21.719139 155.7379 -800 0 -0.040742651 179.57281 -800 0 
	-800 0 -14.800021 47.030346 -800 0 -0.16588545 178.30817 
10.7 -1.0708575 -51.75056 -800 0 -21.752202 155.18966 -800 0 
	-800 0 -1.1985511 93.470167 -800 0 -14.809656 46.236772 
	-21.752202 155.18966 -800 0 -0.040493615 179.57062 -800 0 
	-800 0 -14.809656 46.236772 -800 0 -0.1655652 178.31094 
10.71 -1.0624059 -52.738479 -800 0 -21.777561 154.68505 -800 0 
	-800 0 -1.2080452 91.865261 -800 0 -14.824195 45.445669 
	-21.777561 154.68505 -800 0 -0.040318229 179.56823 -800 0 
	-800 0 -14.824195 45.445669 -800 0 -0.16515661 178.31365 
10.72 -1.0538851 -53.721306 -800 0 -21.802677 154.18142 -800 0 
	-800 0 -1.2168272 90.254365 -800 0 -14.838962 44.651976 
	-21.802677 154.18142 -800 0 -0.040141807 179.56584 -800 0 
	-800 0 -14.838962 44.651976 -800 0 -0.16473396 178.31638 
10.73 -1.045303 -54.699087 -800 0 -21.827547 153.67881 -800 0 
	-800 0 -1.2248831 88.637611 -800 0 -14.853966 43.855715 
	-21.827547 153.67881 -800 0 -0.039964374 179.56345 -800 0 
	-800 0 -14.853966 43.855715 -800 0 -0.16429692 178.31913 
10.74 -1.036667 -55.671867 -800 0 -21.85217 153.17724 -800 0 
	-800 0 -1.2321991 87.015141 -800 0 -14.869218 43.056909 
	-21.85217 153.17724 -800 0 -0.039785955 179.56105 -800 0 
	-800 0 -14.869218 43.056909 -800 0 -0.16384519 178.3219 
10.75 -1.0279842 -56.639693 -800 0 -21.876543 152.67676 -800 0 
	-800 0 -1.2387618 85.387104 -800 0 -14.884728 42.255584 
	-21.876543 152.67676 -800 0 -0.039606574 179.55864 -800 0 
	-800 0 -14.884728 42.255584 -800 0 -0.16337848 178.32467 
10.76 -1.0192613 -57.602611 -800 0 -21.900665 152.17739 -800 0 
	-800 0 -1.2445586 83.753661 -800 0 -14.900506 41.451766 
	-21.900665 152.17739 -800 0 -0.039426255 179.55623 -800 0 
	-800 0 -14.900506 41.451766 -800 0 -0.1628965 178.32746 
10.77 -1.0105046 -58.560671 -800 0 -21.924534 151.67918 -800 0 
	-800 0 -1.249577 82.114982 -800 0 -14.916561 40.645486 
	-21.924534 151.67918 -800 0 -0.03924502 179.55381 -800 0 
	-800 0 -14.916561 40.645486 -800 0 -0.16239897 178.33026 
10.78 -1.0017201 -59.513919 -800 0 -21.948147 151.18216 -800 0 
	-800 0 -1.2538053 80.471246 -800 0 -14.932904 39.836776 
	-21.948147 151.18216 -800 0 -0.039062892 179.55138 -800 0 
	-800 0 -14.932904 39.836776 -800 0 -0.16188562 178.33306 
10.79 -0.99291324 -60.462405 -800 0 -21.971504 150.68636 -800 0 
	-800 0 -1.2572326 78.822643 -800 0 -14.949546 39.02567 
	-21.971504 150.68636 -800 0 -0.038879893 179.54895 -800 0 
	-800 0 -14.949546 39.02567 -800 0 -0.16135619 178.33586 
10.8 -0.98408943 -61.406176 -800 0 -21.994602 150.19181 -800 0 
	-800 0 -1.2598482 77.16937 -800 0 -14.966495 38.212204 
	-21.994602 150.19181 -800 0 -0.038696046 179.54651 -800 0 
	-800 0 -14.966495 38.212204 -800 0 -0.16081045 178.33866 
10.81 -0.9874276 -62.401756 -800 0 -22.027357 149.70083 -800 0 
	-800 0 -1.2664329 75.584934 -800 0 -14.985326 37.436902 
	-22.027357 149.70083 -800 0 -0.038505985 179.5439 -800 0 
	-800 0 -14.985326 37.436902 -800 0 -0.16023834 178.34076 
10.82 -0.99052691 -63.392024 -800 0 -22.059773 149.21105 -800 0 
	-800 0 -1.2722834 73.996402 -800 0 -15.004439 36.659702 
	-22.059773 149.21105 -800 0 -0.038315611 179.54129 -800 0 
	-800 0 -15.004439 36.659702 -800 0 -0.1596525 178.34285 
10.83 -0.99339601 -64.377021 -800 0 -22.091846 148.7225 -800 0 
	-800 0 -1.2773903 72.403955 -800 0 -15.023842 35.880638 
	-22.091846 148.7225 -800 0 -0.038124939 179.53866 -800 0 
	-800 0 -15.023842 35.880638 -800 0 -0.15905279 178.34493 
10.84 -0.99604318 -65.35679 -800 0 -22.123573 148.2352 -800 0 
	-800 0 -1.2817448 70.807779 -800 0 -15.043543 35.09975 
	-22.123573 148.2352 -800 0 -0.037933981 179.53603 -800 0 
	-800 0 -15.043543 35.09975 -800 0 -0.15843906 178.34699 
10.85 -0.9984764 -66.331374 -800 0 -22.15495 147.74919 -800 0 
	-800 0 -1.2853386 69.208071 -800 0 -15.063551 34.317075 
	-22.15495 147.74919 -800 0 -0.03774275 179.53339 -800 0 
	-800 0 -15.063551 34.317075 -800 0 -0.1578112 178.34903 
10.86 -1.0007033 -67.300818 -800 0 -22.185974 147.2645 -800 0 
	-800 0 -1.2881643 67.605031 -800 0 -15.083872 33.532655 
	-22.185974 147.2645 -800 0 -0.037551257 179.53075 -800 0 
	-800 0 -15.083872 33.532655 -800 0 -0.15716907 178.35105 
10.87 -1.0027312 -68.265167 -800 0 -22.216644 146.78115 -800 0 
	-800 0 -1.2902152 65.998869 -800 0 -15.104515 32.746532 
	-22.216644 146.78115 -800 0 -0.037359515 179.52809 -800 0 
	-800 0 -15.104515 32.746532 -800 0 -0.15651259 178.35304 
10.88 -1.0045671 -69.224468 -800 0 -22.246955 146.29916 -800 0 
	-800 0 -1.2914851 64.3898 -800 0 -15.125487 31.958752 
	-22.246955 146.29916 -800 0 -0.037167532 179.52544 -800 0 
	-800 0 -15.125487 31.958752 -800 0 -0.15584167 178.35501 
10.89 -1.0062178 -70.178768 -800 0 -22.276905 145.81857 -800 0 
	-800 0 -1.291969 62.778045 -800 0 -15.146795 31.16936 
	-22.276905 145.81857 -800 0 -0.036975321 179.52277 -800 0 
	-800 0 -15.146795 31.16936 -800 0 -0.15515623 178.35695 
10.9 -1.0076894 -71.128116 -800 0 -22.306491 145.33941 -800 0 
	-800 0 -1.2916623 61.163834 -800 0 -15.168448 30.378405 
	-22.306491 145.33941 -800 0 -0.036782889 179.5201 -800 0 
	-800 0 -15.168448 30.378405 -800 0 -0.15445622 178.35886 
10.91 -1.0024708 -71.966397 -800 0 -22.326466 144.91213 -800 0 
	-800 0 -1.3004833 59.583911 -800 0 -15.197883 29.621169 
	-22.326466 144.91213 -800 0 -0.03667268 179.51733 -800 0 
	-800 0 -15.197883 29.621169 -800 0 -0.15360034 178.35954 
10.92 -0.99721276 -72.801235 -800 0 -22.346134 144.48549 -800 0 
	-800 0 -1.3084685 58.002858 -800 0 -15.227578 28.863232 
	-22.346134 144.48549 -800 0 -0.036561363 179.51456 -800 0 
	-800 0 -15.227578 28.863232 -800 0 -0.1527356 178.36017 
10.93 -0.99191924 -73.632673 -800 0 -22.365494 144.05954 -800 0 
	-800 0 -1.3156147 56.420887 -800 0 -15.257537 28.104638 
	-22.365494 144.05954 -800 0 -0.03644895 179.51179 -800 0 
	-800 0 -15.257537 28.104638 -800 0 -0.15186207 178.36075 
10.94 -0.98659373 -74.46075 -800 0 -22.384542 143.6343 -800 0 
	-800 0 -1.3219198 54.838215 -800 0 -15.287767 27.345429 
	-22.384542 143.6343 -800 0 -0.036335451 179.50901 -800 0 
	-800 0 -15.287767 27.345429 -800 0 -0.15097982 178.36126 
10.95 -0.98123958 -75.285508 -800 0 -22.403279 143.20979 -800 0 
	-800 0 -1.3273822 53.255063 -800 0 -15.31827 26.585651 
	-22.403279 143.20979 -800 0 -0.036220879 179.50623 -800 0 
	-800 0 -15.31827 26.585651 -800 0 -0.15008893 178.36172 
10.96 -0.97585986 -76.106989 -800 0 -22.4217 142.78605 -800 0 
	-800 0 -1.3320014 51.671655 -800 0 -15.349051 25.825351 
	-22.4217 142.78605 -800 0 -0.036105246 179.50344 -800 0 
	-800 0 -15.349051 25.825351 -800 0 -0.14918951 178.36212 
10.97 -0.97045748 -76.925235 -800 0 -22.439806 142.36311 -800 0 
	-800 0 -1.3357775 50.088216 -800 0 -15.380115 25.064575 
	-22.439806 142.36311 -800 0 -0.035988561 179.50065 -800 0 
	-800 0 -15.380115 25.064575 -800 0 -0.14828166 178.36245 
10.98 -0.9650351 -77.740288 -800 0 -22.457593 141.941 -800 0 
	-800 0 -1.3387115 48.504976 -800 0 -15.411464 24.30337 
	-22.457593 141.941 -800 0 -0.035870836 179.49785 -800 0 
	-800 0 -15.411464 24.30337 -800 0 -0.14736549 178.36272 
10.99 -0.95959519 -78.552188 -800 0 -22.475062 141.51973 -800 0 
	-800 0 -1.3408053 46.922165 -800 0 -15.443102 23.541787 
	-22.475062 141.51973 -800 0 -0.035752082 179.49505 -800 0 
	-800 0 -15.443102 23.541787 -800 0 -0.14644114 178.36292 
11 -0.95414001 -79.360977 -800 0 -22.492209 141.09935 -800 0 
	-800 0 -1.3420616 45.340015 -800 0 -15.475033 22.779873 
	-22.492209 141.09935 -800 0 -0.035632308 179.49225 -800 0 
	-800 0 -15.475033 22.779873 -800 0 -0.14550874 178.36306 
11.01 -0.95414909 -80.239302 -800 0 -22.516218 140.66112 -800 0 
	-800 0 -1.3465645 43.693796 -800 0 -15.510433 21.987195 
	-22.516218 140.66112 -800 0 -0.035514219 179.48935 -800 0 
	-800 0 -15.510433 21.987195 -800 0 -0.14451225 178.36365 
11.02 -0.9540189 -81.11361 -800 0 -22.539838 140.22377 -800 0 
	-800 0 -1.350165 42.048511 -800 0 -15.546211 21.194339 
	-22.539838 140.22377 -800 0 -0.035395307 179.48644 -800 0 
	-800 0 -15.546211 21.194339 -800 0 -0.14350595 178.36416 
11.03 -0.95375443 -81.983946 -800 0 -22.563066 139.78735 -800 0 
	-800 0 -1.3528659 40.404442 -800 0 -15.582368 20.40137 
	-22.563066 139.78735 -800 0 -0.035275578 179.48352 -800 0 
	-800 0 -15.582368 20.40137 -800 0 -0.1424901 178.36458 
11.04 -0.95336045 -82.850356 -800 0 -22.585899 139.35188 -800 0 
	-800 0 -1.3546715 38.761874 -800 0 -15.618908 19.60835 
	-22.585899 139.35188 -800 0 -0.035155036 179.4806 -800 0 
	-800 0 -15.618908 19.60835 -800 0 -0.14146496 178.36491 
11.05 -0.95284143 -83.712886 -800 0 -22.608334 138.91738 -800 0 
	-800 0 -1.3555869 37.121092 -800 0 -15.655831 18.815347 
	-22.608334 138.91738 -800 0 -0.035033687 179.47767 -800 0 
	-800 0 -15.655831 18.815347 -800 0 -0.14043083 178.36514 
11.06 -0.95220162 -84.571582 -800 0 -22.630369 138.4839 -800 0 
	-800 0 -1.3556182 35.482379 -800 0 -15.693139 18.022424 
	-22.630369 138.4839 -800 0 -0.034911537 179.47473 -800 0 
	-800 0 -15.693139 18.022424 -800 0 -0.13938799 178.36528 
11.07 -0.95144502 -85.426491 -800 0 -22.652001 138.05147 -800 0 
	-800 0 -1.3547727 33.846017 -800 0 -15.730832 17.229648 
	-22.652001 138.05147 -800 0 -0.03478859 179.47179 -800 0 
	-800 0 -15.730832 17.229648 -800 0 -0.13833674 178.36533 
11.08 -0.95057535 -86.277661 -800 0 -22.673228 137.62011 -800 0 
	-800 0 -1.3530585 32.212287 -800 0 -15.768912 16.437084 
	-22.673228 137.62011 -800 0 -0.034664851 179.46884 -800 0 
	-800 0 -15.768912 16.437084 -800 0 -0.13727739 178.36528 
11.09 -0.94959615 -87.125137 -800 0 -22.694046 137.18985 -800 0 
	-800 0 -1.350485 30.58147 -800 0 -15.80738 15.644799 
	-22.694046 137.18985 -800 0 -0.034540323 179.46588 -800 0 
	-800 0 -15.80738 15.644799 -800 0 -0.13621026 178.36513 
11.1 -0.94851067 -87.968967 -800 0 -22.714454 136.76072 -800 0 
	-800 0 -1.3470622 28.95384 -800 0 -15.846234 14.852861 
	-22.714454 136.76072 -800 0 -0.034415012 179.46292 -800 0 
	-800 0 -15.846234 14.852861 -800 0 -0.13513568 178.36487 
11.11 -0.94786086 -88.773213 -800 0 -22.732817 136.3494 -800 0 
	-800 0 -1.3489297 27.370332 -800 0 -15.888424 14.089372 
	-22.732817 136.3494 -800 0 -0.03433526 179.45995 -800 0 
	-800 0 -15.888424 14.089372 -800 0 -0.13402892 178.36394 
11.12 -0.94714324 -89.574393 -800 0 -22.750779 135.93876 -800 0 
	-800 0 -1.3499893 25.790391 -800 0 -15.930947 13.326627 
	-22.750779 135.93876 -800 0 -0.034254526 179.45696 -800 0 
	-800 0 -15.930947 13.326627 -800 0 -0.13291816 178.3629 
11.13 -0.94636052 -90.372552 -800 0 -22.768336 135.52882 -800 0 
	-800 0 -1.3502504 24.214254 -800 0 -15.973801 12.564682 
	-22.768336 135.52882 -800 0 -0.034172813 179.45397 -800 0 
	-800 0 -15.973801 12.564682 -800 0 -0.13180372 178.36176 
11.14 -0.94551523 -91.167737 -800 0 -22.785485 135.11963 -800 0 
	-800 0 -1.3497234 22.642155 -800 0 -16.016984 11.803594 
	-22.785485 135.11963 -800 0 -0.034090123 179.45098 -800 0 
	-800 0 -16.016984 11.803594 -800 0 -0.13068591 178.36052 
11.15 -0.94460966 -91.959993 -800 0 -22.802223 134.71121 -800 0 
	-800 0 -1.3484189 21.074325 -800 0 -16.060496 11.043418 
	-22.802223 134.71121 -800 0 -0.034006458 179.44797 -800 0 
	-800 0 -16.060496 11.043418 -800 0 -0.12956506 178.35918 
11.16 -0.94364591 -92.749366 -800 0 -22.818548 134.30358 -800 0 
	-800 0 -1.3463488 19.510989 -800 0 -16.104334 10.284211 
	-22.818548 134.30358 -800 0 -0.033921819 179.44496 -800 0 
	-800 0 -16.104334 10.284211 -800 0 -0.12844147 178.35774 
11.17 -0.94262588 -93.535901 -800 0 -22.834457 133.89679 -800 0 
	-800 0 -1.3435252 17.952369 -800 0 -16.148496 9.5260283 
	-22.834457 133.89679 -800 0 -0.033836208 179.44193 -800 0 
	-800 0 -16.148496 9.5260283 -800 0 -0.12731547 178.35619 
11.18 -0.94155128 -94.319644 -800 0 -22.849947 133.49086 -800 0 
	-800 0 -1.339961 16.398681 -800 0 -16.192979 8.7689252 
	-22.849947 133.49086 -800 0 -0.033749628 179.43891 -800 0 
	-800 0 -16.192979 8.7689252 -800 0 -0.12618736 178.35454 
11.19 -0.94042362 -95.100641 -800 0 -22.865016 133.08582 -800 0 
	-800 0 -1.3356699 14.850139 -800 0 -16.237783 8.0129567 
	-22.865016 133.08582 -800 0 -0.033662078 179.43587 -800 0 
	-800 0 -16.237783 8.0129567 -800 0 -0.12505744 178.35279 
11.2 -0.93924422 -95.878937 -800 0 -22.879661 132.68171 -800 0 
	-800 0 -1.3306659 13.306948 -800 0 -16.282903 7.2581771 
	-22.879661 132.68171 -800 0 -0.03357356 179.43282 -800 0 
	-800 0 -16.282903 7.2581771 -800 0 -0.12392603 178.35094 
11.21 -0.93901045 -96.665509 -800 0 -22.893878 132.28132 -800 0 
	-800 0 -1.3304251 11.761624 -800 0 -16.33123 6.513838 
	-22.893878 132.28132 -800 0 -0.033527918 179.42971 -800 0 
	-800 0 -16.33123 6.513838 -800 0 -0.12277473 178.34872 
11.22 -0.9386961 -97.44947 -800 0 -22.907646 131.88157 -800 0 
	-800 0 -1.3294105 10.221755 -800 0 -16.379861 5.7708847 
	-22.907646 131.88157 -800 0 -0.033481218 179.42659 -800 0 
	-800 0 -16.379861 5.7708847 -800 0 -0.12162359 178.3464 
11.23 -0.93830295 -98.230863 -800 0 -22.920964 131.48248 -800 0 
	-800 0 -1.3276357 8.6875528 -800 0 -16.42879 5.0293678 
	-22.920964 131.48248 -800 0 -0.033433459 179.42346 -800 0 
	-800 0 -16.42879 5.0293678 -800 0 -0.12047291 178.34398 
11.24 -0.93783258 -99.009733 -800 0 -22.933827 131.0841 -800 0 
	-800 0 -1.325115 7.1592198 -800 0 -16.478015 4.2893375 
	-22.933827 131.0841 -800 0 -0.033384638 179.42032 -800 0 
	-800 0 -16.478015 4.2893375 -800 0 -0.11932295 178.34146 
11.25 -0.93728635 -99.786125 -800 0 -22.946231 130.68646 -800 0 
	-800 0 -1.3218632 5.6369536 -800 0 -16.527531 3.5508431 
	-22.946231 130.68646 -800 0 -0.033334754 179.41716 -800 0 
	-800 0 -16.527531 3.5508431 -800 0 -0.11817397 178.33883 
11.26 -0.93666545 -100.56008 -800 0 -22.958173 130.28959 -800 0 
	-800 0 -1.3178956 4.1209452 -800 0 -16.577335 2.8139332 
	-22.958173 130.28959 -800 0 -0.033283804 179.414 -800 0 
	-800 0 -16.577335 2.8139332 -800 0 -0.11702624 178.33611 
11.27 -0.93597087 -101.33166 -800 0 -22.969651 129.89352 -800 0 
	-800 0 -1.313228 2.6113791 -800 0 -16.62742 2.078656 
	-22.969651 129.89352 -800 0 -0.033231786 179.41082 -800 0 
	-800 0 -16.62742 2.078656 -800 0 -0.11587999 178.33329 
11.28 -0.93520341 -102.10088 -800 0 -22.98066 129.49829 -800 0 
	-800 0 -1.3078766 1.1084329 -800 0 -16.677784 1.3450587 
	-22.98066 129.49829 -800 0 -0.033178696 179.40764 -800 0 
	-800 0 -16.677784 1.3450587 -800 0 -0.11473545 178.33037 
11.29 -0.93436369 -102.86781 -800 0 -22.991198 129.10394 -800 0 
	-800 0 -1.301858 -0.38772234 -800 0 -16.728422 0.61318773 
	-22.991198 129.10394 -800 0 -0.033124533 179.40444 -800 0 
	-800 0 -16.728422 0.61318773 -800 0 -0.11359285 178.32735 
11.3 -0.93345211 -103.63248 -800 0 -23.001262 128.71049 -800 0 
	-800 0 -1.295189 -1.8769227 -800 0 -16.779328 -0.11691094 
	-23.001262 128.71049 -800 0 -0.033069292 179.40123 -800 0 
	-800 0 -16.779328 -0.11691094 -800 0 -0.1124524 178.32424 
11.31 -0.93156893 -104.39021 -800 0 -23.009941 128.3127 -800 0 
	-800 0 -1.2967323 -3.3456787 -800 0 -16.834267 -0.8199872 
	-23.009941 128.3127 -800 0 -0.033051779 179.39807 -800 0 
	-800 0 -16.834267 -0.8199872 -800 0 -0.11131132 178.32056 
11.32 -0.92965382 -105.14583 -800 0 -23.01814 127.91554 -800 0 
	-800 0 -1.29756 -4.8077949 -800 0 -16.889425 -1.5211036 
	-23.01814 127.91554 -800 0 -0.033033275 179.39489 -800 0 
	-800 0 -16.889425 -1.5211036 -800 0 -0.11017453 178.31678 
11.33 -0.92770711 -105.89939 -800 0 -23.025856 127.51906 -800 0 
	-800 0 -1.2976862 -6.2631178 -800 0 -16.944798 -2.2202241 
	-23.025856 127.51906 -800 0 -0.033013775 179.3917 -800 0 
	-800 0 -16.944798 -2.2202241 -800 0 -0.10904216 178.31292 
11.34 -0.9257289 -106.65094 -800 0 -23.033085 127.12329 -800 0 
	-800 0 -1.2971256 -7.7115003 -800 0 -17.000379 -2.9173132 
	-23.033085 127.12329 -800 0 -0.032993273 179.3885 -800 0 
	-800 0 -17.000379 -2.9173132 -800 0 -0.10791434 178.30898 
11.35 -0.92371913 -107.40052 -800 0 -23.039822 126.72827 -800 0 
	-800 0 -1.295893 -9.1528021 -800 0 -17.056163 -3.6123362 
	-23.039822 126.72827 -800 0 -0.032971766 179.38528 -800 0 
	-800 0 -17.056163 -3.6123362 -800 0 -0.10679119 178.30494 
11.36 -0.92167754 -108.14818 -800 0 -23.046063 126.33403 -800 0 
	-800 0 -1.2940038 -10.586889 -800 0 -17.112144 -4.305259 
	-23.046063 126.33403 -800 0 -0.032949247 179.38205 -800 0 
	-800 0 -17.112144 -4.305259 -800 0 -0.10567282 178.30083 
11.37 -0.91960369 -108.89397 -800 0 -23.051805 125.94062 -800 0 
	-800 0 -1.2914735 -12.013635 -800 0 -17.168318 -4.996048 
	-23.051805 125.94062 -800 0 -0.03292571 179.3788 -800 0 
	-800 0 -17.168318 -4.996048 -800 0 -0.10455932 178.29662 
11.38 -0.91749695 -109.63794 -800 0 -23.057044 125.54805 -800 0 
	-800 0 -1.2883179 -13.432918 -800 0 -17.224678 -5.6846703 
	-23.057044 125.54805 -800 0 -0.032901151 179.37554 -800 0 
	-800 0 -17.224678 -5.6846703 -800 0 -0.1034508 178.29234 
11.39 -0.91535651 -110.38014 -800 0 -23.061776 125.15639 -800 0 
	-800 0 -1.2845528 -14.844625 -800 0 -17.281219 -6.3710934 
	-23.061776 125.15639 -800 0 -0.032875564 179.37226 -800 0 
	-800 0 -17.281219 -6.3710934 -800 0 -0.10234735 178.28797 
11.4 -0.91318138 -111.12062 -800 0 -23.065997 124.76565 -800 0 
	-800 0 -1.2801946 -16.24865 -800 0 -17.337936 -7.0552851 
	-23.065997 124.76565 -800 0 -0.032848941 179.36897 -800 0 
	-800 0 -17.337936 -7.0552851 -800 0 -0.10124906 178.28352 
11.41 -0.91219143 -111.8575 -800 0 -23.069968 124.37503 -800 0 
	-800 0 -1.2801782 -17.636623 -800 0 -17.39742 -7.7174666 
	-23.069968 124.37503 -800 0 -0.032861317 179.36569 -800 0 
	-800 0 -17.39742 -7.7174666 -800 0 -0.10015595 178.27858 
11.42 -0.91117188 -112.59284 -800 0 -23.073407 123.98497 -800 0 
	-800 0 -1.2795135 -19.01694 -800 0 -17.457027 -8.3773489 
	-23.073407 123.98497 -800 0 -0.032872906 179.36239 -800 0 
	-800 0 -17.457027 -8.3773489 -800 0 -0.099069446 178.27356 
11.43 -0.91012208 -113.32667 -800 0 -23.07631 123.59551 -800 0 
	-800 0 -1.2782167 -20.389508 -800 0 -17.516751 -9.0349067 
	-23.07631 123.59551 -800 0 -0.032883702 179.35907 -800 0 
	-800 0 -17.516751 -9.0349067 -800 0 -0.097989597 178.26847 
11.44 -0.90904119 -114.05905 -800 0 -23.078672 123.2067 -800 0 
	-800 0 -1.276304 -21.754243 -800 0 -17.576587 -9.6901143 
	-23.078672 123.2067 -800 0 -0.032893697 179.35574 -800 0 
	-800 0 -17.576587 -9.6901143 -800 0 -0.096916455 178.26331 
11.45 -0.9079282 -114.79004 -800 0 -23.080487 122.81856 -800 0 
	-800 0 -1.2737919 -23.111063 -800 0 -17.63653 -10.342946 
	-23.080487 122.81856 -800 0 -0.032902886 179.35239 -800 0 
	-800 0 -17.63653 -10.342946 -800 0 -0.095850082 178.25808 
11.46 -0.90678187 -115.51968 -800 0 -23.081751 122.43113 -800 0 
	-800 0 -1.270697 -24.459896 -800 0 -17.696574 -10.993377 
	-23.081751 122.43113 -800 0 -0.03291126 179.34902 -800 0 
	-800 0 -17.696574 -10.993377 -800 0 -0.09479055 178.25278 
11.47 -0.90560079 -116.24802 -800 0 -23.082458 122.04446 -800 0 
	-800 0 -1.2670357 -25.800674 -800 0 -17.756713 -11.64138 
	-23.082458 122.04446 -800 0 -0.032918813 179.34563 -800 0 
	-800 0 -17.756713 -11.64138 -800 0 -0.093737942 178.2474 
11.48 -0.90438336 -116.97512 -800 0 -23.082605 121.65859 -800 0 
	-800 0 -1.2628246 -27.133336 -800 0 -17.816943 -12.28693 
	-23.082605 121.65859 -800 0 -0.032925538 179.34222 -800 0 
	-800 0 -17.816943 -12.28693 -800 0 -0.092692352 178.24196 
11.49 -0.90312775 -117.70103 -800 0 -23.082186 121.27355 -800 0 
	-800 0 -1.2580805 -28.457828 -800 0 -17.877256 -12.929998 
	-23.082186 121.27355 -800 0 -0.032931425 179.33879 -800 0 
	-800 0 -17.877256 -12.929998 -800 0 -0.091653892 178.23645 
11.5 -0.90183198 -118.4258 -800 0 -23.081197 120.88938 -800 0 
	-800 0 -1.2528199 -29.7741 -800 0 -17.937648 -13.570558 
	-23.081197 120.88938 -800 0 -0.032936467 179.33535 -800 0 
	-800 0 -17.937648 -13.570558 -800 0 -0.090622686 178.23086 
11.51 -0.90184601 -119.14759 -800 0 -23.080071 120.50668 -800 0 
	-800 0 -1.2508892 -31.069509 -800 0 -17.999887 -14.187337 
	-23.080071 120.50668 -800 0 -0.032979863 179.33191 -800 0 
	-800 0 -17.999887 -14.187337 -800 0 -0.089612145 178.22484 
11.52 -0.90181897 -119.86841 -800 0 -23.078353 120.12446 -800 0 
	-800 0 -1.2483984 -32.356856 -800 0 -18.062153 -14.80164 
	-23.078353 120.12446 -800 0 -0.033022784 179.32846 -800 0 
	-800 0 -18.062153 -14.80164 -800 0 -0.088609857 178.21877 
11.53 -0.90174935 -120.58831 -800 0 -23.076037 119.74276 -800 0 
	-800 0 -1.2453642 -33.636104 -800 0 -18.12444 -15.41344 
	-23.076037 119.74276 -800 0 -0.033065227 179.32498 -800 0 
	-800 0 -18.12444 -15.41344 -800 0 -0.087615959 178.21263 
11.54 -0.90163543 -121.30735 -800 0 -23.073117 119.36162 -800 0 
	-800 0 -1.2418036 -34.907224 -800 0 -18.186744 -16.022708 
	-23.073117 119.36162 -800 0 -0.033107186 179.32147 -800 0 
	-800 0 -18.186744 -16.022708 -800 0 -0.086630611 178.20643 
11.55 -0.90147524 -122.0256 -800 0 -23.069587 118.98108 -800 0 
	-800 0 -1.2377331 -36.170189 -800 0 -18.249058 -16.629415 
	-23.069587 118.98108 -800 0 -0.033148656 179.31795 -800 0 
	-800 0 -18.249058 -16.629415 -800 0 -0.085653995 178.20017 
11.56 -0.90126666 -122.7431 -800 0 -23.065441 118.60119 -800 0 
	-800 0 -1.2331695 -37.424978 -800 0 -18.311376 -17.233527 
	-23.065441 118.60119 -800 0 -0.033189631 179.3144 -800 0 
	-800 0 -18.311376 -17.233527 -800 0 -0.084686317 178.19386 
11.57 -0.90100729 -123.45991 -800 0 -23.060673 118.22197 -800 0 
	-800 0 -1.2281292 -38.671576 -800 0 -18.373693 -17.83501 
	-23.060673 118.22197 -800 0 -0.033230105 179.31083 -800 0 
	-800 0 -18.373693 -17.83501 -800 0 -0.083727805 178.18748 
11.58 -0.90069454 -124.17609 -800 0 -23.055277 117.84347 -800 0 
	-800 0 -1.2226287 -39.909971 -800 0 -18.436002 -18.433827 
	-23.055277 117.84347 -800 0 -0.033270071 179.30723 -800 0 
	-800 0 -18.436002 -18.433827 -800 0 -0.082778711 178.18104 
11.59 -0.90032561 -124.89169 -800 0 -23.049246 117.46574 -800 0 
	-800 0 -1.2166843 -41.140157 -800 0 -18.498296 -19.029939 
	-23.049246 117.46574 -800 0 -0.033309525 179.30361 -800 0 
	-800 0 -18.498296 -19.029939 -800 0 -0.081839311 178.17455 
11.6 -0.89989745 -125.60678 -800 0 -23.042575 117.08881 -800 0 
	-800 0 -1.210312 -42.36213 -800 0 -18.560568 -19.623305 
	-23.042575 117.08881 -800 0 -0.033348458 179.29997 -800 0 
	-800 0 -18.560568 -19.623305 -800 0 -0.080909906 178.168 
11.61 -0.90039653 -126.32049 -800 0 -23.035804 116.70564 -800 0 
	-800 0 -1.2083937 -43.564452 -800 0 -18.624681 -20.190508 
	-23.035804 116.70564 -800 0 -0.0334295 179.29637 -800 0 
	-800 0 -18.624681 -20.190508 -800 0 -0.080010621 178.16107 
11.62 -0.90085863 -127.03383 -800 0 -23.028365 116.32281 -800 0 
	-800 0 -1.205993 -44.758947 -800 0 -18.688724 -20.754979 
	-23.028365 116.32281 -800 0 -0.033510629 179.29274 -800 0 
	-800 0 -18.688724 -20.754979 -800 0 -0.079122337 178.1541 
11.63 -0.9012814 -127.74686 -800 0 -23.02025 115.94036 -800 0 
	-800 0 -1.2031256 -45.945616 -800 0 -18.752687 -21.316671 
	-23.02025 115.94036 -800 0 -0.033591847 179.28908 -800 0 
	-800 0 -18.752687 -21.316671 -800 0 -0.078245398 178.14708 
11.64 -0.90166222 -128.45966 -800 0 -23.011452 115.55832 -800 0 
	-800 0 -1.199807 -47.124462 -800 0 -18.816562 -21.875533 
	-23.011452 115.55832 -800 0 -0.033673157 179.2854 -800 0 
	-800 0 -18.816562 -21.875533 -800 0 -0.07738017 178.14002 
11.65 -0.90199826 -129.17229 -800 0 -23.001962 115.17673 -800 0 
	-800 0 -1.1960527 -48.295492 -800 0 -18.880336 -22.431513 
	-23.001962 115.17673 -800 0 -0.033754561 179.28168 -800 0 
	-800 0 -18.880336 -22.431513 -800 0 -0.076527047 178.13291 
11.66 -0.90228641 -129.88482 -800 0 -22.991773 114.79564 -800 0 
	-800 0 -1.1918778 -49.458715 -800 0 -18.943997 -22.984552 
	-22.991773 114.79564 -800 0 -0.033836061 179.27794 -800 0 
	-800 0 -18.943997 -22.984552 -800 0 -0.075686445 178.12576 
11.67 -0.90252331 -130.59732 -800 0 -22.980877 114.41509 -800 0 
	-800 0 -1.1872975 -50.614147 -800 0 -19.007532 -23.534594 
	-22.980877 114.41509 -800 0 -0.033917661 179.27416 -800 0 
	-800 0 -19.007532 -23.534594 -800 0 -0.074858804 178.11856 
11.68 -0.90270534 -131.30985 -800 0 -22.969264 114.03512 -800 0 
	-800 0 -1.1823265 -51.761802 -800 0 -19.070925 -24.081577 
	-22.969264 114.03512 -800 0 -0.033999361 179.27035 -800 0 
	-800 0 -19.070925 -24.081577 -800 0 -0.074044586 178.11134 
11.69 -0.90282859 -132.0225 -800 0 -22.956929 113.65578 -800 0 
	-800 0 -1.1769796 -52.901701 -800 0 -19.134158 -24.62544 
	-22.956929 113.65578 -800 0 -0.034081165 179.26652 -800 0 
	-800 0 -19.134158 -24.62544 -800 0 -0.073244272 178.10407 
11.7 -0.90288887 -132.73531 -800 0 -22.943861 113.2771 -800 0 
	-800 0 -1.1712714 -54.033865 -800 0 -19.197212 -25.166121 
	-22.943861 113.2771 -800 0 -0.034163073 179.26265 -800 0 
	-800 0 -19.197212 -25.166121 -800 0 -0.072458358 178.09678 
11.71 -0.90050749 -133.47553 -800 0 -22.926622 112.88324 -800 0 
	-800 0 -1.166092 -55.174091 -800 0 -19.262179 -25.701728 
	-22.926622 112.88324 -800 0 -0.034306489 179.25883 -800 0 
	-800 0 -19.262179 -25.701728 -800 0 -0.071678327 178.0892 
11.72 -0.89804509 -134.21619 -800 0 -22.9086 112.48985 -800 0 
	-800 0 -1.1605242 -56.306308 -800 0 -19.326893 -26.234024 
	-22.9086 112.48985 -800 0 -0.034450888 179.25498 -800 0 
	-800 0 -19.326893 -26.234024 -800 0 -0.070914234 178.0816 
11.73 -0.89549632 -134.95738 -800 0 -22.889786 112.09697 -800 0 
	-800 0 -1.1545836 -57.430547 -800 0 -19.391325 -26.762964 
	-22.889786 112.09697 -800 0 -0.034596292 179.25108 -800 0 
	-800 0 -19.391325 -26.762964 -800 0 -0.070166564 178.07399 
11.74 -0.89285547 -135.69918 -800 0 -22.870167 111.70467 -800 0 
	-800 0 -1.1482856 -58.546841 -800 0 -19.455442 -27.288509 
	-22.870167 111.70467 -800 0 -0.034742721 179.24715 -800 0 
	-800 0 -19.455442 -27.288509 -800 0 -0.06943578 178.06637 
11.75 -0.89011646 -136.44166 -800 0 -22.849736 111.31297 -800 0 
	-800 0 -1.1416454 -59.655224 -800 0 -19.519208 -27.810637 
	-22.849736 111.31297 -800 0 -0.034890197 179.24318 -800 0 
	-800 0 -19.519208 -27.810637 -800 0 -0.068722315 178.05875 
11.76 -0.88727285 -137.18492 -800 0 -22.828481 110.92194 -800 0 
	-800 0 -1.1346779 -60.755733 -800 0 -19.582581 -28.329345 
	-22.828481 110.92194 -800 0 -0.035038742 179.23917 -800 0 
	-800 0 -19.582581 -28.329345 -800 0 -0.068026546 178.05115 
11.77 -0.8843178 -137.92904 -800 0 -22.806392 110.53162 -800 0 
	-800 0 -1.1273977 -61.848408 -800 0 -19.645516 -28.844658 
	-22.806392 110.53162 -800 0 -0.035188377 179.23512 -800 0 
	-800 0 -19.645516 -28.844658 -800 0 -0.067348768 178.04356 
11.78 -0.88124408 -138.6741 -800 0 -22.783458 110.14205 -800 0 
	-800 0 -1.119819 -62.93329 -800 0 -19.707963 -29.356637 
	-22.783458 110.14205 -800 0 -0.035339126 179.23102 -800 0 
	-800 0 -19.707963 -29.356637 -800 0 -0.06668916 178.03599 
11.79 -0.87804403 -139.42019 -800 0 -22.75967 109.7533 -800 0 
	-800 0 -1.111956 -64.010421 -800 0 -19.769868 -29.865387 
	-22.75967 109.7533 -800 0 -0.03549101 179.22689 -800 0 
	-800 0 -19.769868 -29.865387 -800 0 -0.066047742 178.02847 
11.8 -0.87470955 -140.1674 -800 0 -22.735017 109.3654 -800 0 
	-800 0 -1.1038223 -65.079846 -800 0 -19.831171 -30.371071 
	-22.735017 109.3654 -800 0 -0.035644054 179.22271 -800 0 
	-800 0 -19.831171 -30.371071 -800 0 -0.065424324 178.021 
11.81 -0.87724605 -140.85559 -800 0 -22.714579 108.97875 -800 0 
	-800 0 -1.1031355 -66.095071 -800 0 -19.891894 -30.823398 
	-22.714579 108.97875 -800 0 -0.035827528 179.21865 -800 0 
	-800 0 -19.891894 -30.823398 -800 0 -0.064884 178.01336 
11.82 -0.87979898 -141.5453 -800 0 -22.693295 108.5917 -800 0 
	-800 0 -1.1021084 -67.103828 -800 0 -19.95187 -31.273574 
	-22.693295 108.5917 -800 0 -0.036013299 179.21456 -800 0 
	-800 0 -19.95187 -31.273574 -800 0 -0.064359679 178.00582 
11.83 -0.88236486 -142.23662 -800 0 -22.671151 108.20426 -800 0 
	-800 0 -1.1007528 -68.106145 -800 0 -20.011038 -31.72201 
	-22.671151 108.20426 -800 0 -0.036201429 179.21042 -800 0 
	-800 0 -20.011038 -31.72201 -800 0 -0.063850176 177.99838 
11.84 -0.88493987 -142.92968 -800 0 -22.648134 107.81648 -800 0 
	-800 0 -1.0990805 -69.10205 -800 0 -20.069339 -32.169222 
	-22.648134 107.81648 -800 0 -0.036391984 179.20624 -800 0 
	-800 0 -20.069339 -32.169222 -800 0 -0.063353818 177.99106 
11.85 -0.88751987 -143.62458 -800 0 -22.624229 107.42838 -800 0 
	-800 0 -1.0971027 -70.091575 -800 0 -20.126722 -32.615839 
	-22.624229 107.42838 -800 0 -0.03658503 179.20202 -800 0 
	-800 0 -20.126722 -32.615839 -800 0 -0.062868377 177.98388 
11.86 -0.89010033 -144.32144 -800 0 -22.599423 107.03999 -800 0 
	-800 0 -1.0948307 -71.07475 -800 0 -20.183149 -33.062611 
	-22.599423 107.03999 -800 0 -0.036780635 179.19774 -800 0 
	-800 0 -20.183149 -33.062611 -800 0 -0.062391008 177.97684 
11.87 -0.89267635 -145.02038 -800 0 -22.5737 106.65134 -800 0 
	-800 0 -1.0922754 -72.051609 -800 0 -20.238599 -33.510397 
	-22.5737 106.65134 -800 0 -0.03697887 179.19342 -800 0 
	-800 0 -20.238599 -33.510397 -800 0 -0.061918218 177.96998 
11.88 -0.89524262 -145.72153 -800 0 -22.547047 106.26247 -800 0 
	-800 0 -1.0894477 -73.022183 -800 0 -20.293073 -33.960152 
	-22.547047 106.26247 -800 0 -0.037179809 179.18905 -800 0 
	-800 0 -20.293073 -33.960152 -800 0 -0.061445875 177.96328 
11.89 -0.89779343 -146.425 -800 0 -22.519448 105.87342 -800 0 
	-800 0 -1.0863581 -73.986508 -800 0 -20.346605 -34.412897 
	-22.519448 105.87342 -800 0 -0.037383527 179.18463 -800 0 
	-800 0 -20.346605 -34.412897 -800 0 -0.060969275 177.95677 
11.9 -0.90032259 -147.13092 -800 0 -22.490888 105.4842 -800 0 
	-800 0 -1.0830168 -74.944618 -800 0 -20.39926 -34.869671 
	-22.490888 105.4842 -800 0 -0.037590101 179.18016 -800 0 
	-800 0 -20.39926 -34.869671 -800 0 -0.060483277 177.95042 
11.91 -0.90384387 -147.8544 -800 0 -22.461083 105.08174 -800 0 
	-800 0 -1.0792755 -75.90139 -800 0 -20.4518 -35.330444 
	-22.461083 105.08174 -800 0 -0.0378534 179.17581 -800 0 
	-800 0 -20.4518 -35.330444 -800 0 -0.059984616 177.94412 
11.92 -0.90734541 -148.58075 -800 0 -22.430279 104.67849 -800 0 
	-800 0 -1.0752904 -76.851907 -800 0 -20.503697 -35.797181 
	-22.430279 104.67849 -800 0 -0.038121156 179.1714 -800 0 
	-800 0 -20.503697 -35.797181 -800 0 -0.059465936 177.93797 
11.93 -0.91082162 -149.31012 -800 0 -22.398456 104.27447 -800 0 
	-800 0 -1.0710717 -77.796207 -800 0 -20.555126 -36.27059 
	-22.398456 104.27447 -800 0 -0.038393506 179.16694 -800 0 
	-800 0 -20.555126 -36.27059 -800 0 -0.05892239 177.93194 
11.94 -0.91426647 -150.04267 -800 0 -22.365598 103.86968 -800 0 
	-800 0 -1.0666294 -78.734329 -800 0 -20.60629 -36.751129 
	-22.365598 103.86968 -800 0 -0.038670595 179.16243 -800 0 
	-800 0 -20.60629 -36.751129 -800 0 -0.058349925 177.926 
11.95 -0.91767337 -150.77855 -800 0 -22.331685 103.46417 -800 0 
	-800 0 -1.0619732 -79.666312 -800 0 -20.657408 -37.238953 
	-22.331685 103.46417 -800 0 -0.038952571 179.15786 -800 0 
	-800 0 -20.657408 -37.238953 -800 0 -0.057745627 177.92011 
11.96 -0.9210352 -151.51792 -800 0 -22.296698 103.05794 -800 0 
	-800 0 -1.0571127 -80.592197 -800 0 -20.708702 -37.733888 
	-22.296698 103.05794 -800 0 -0.039239588 179.15323 -800 0 
	-800 0 -20.708702 -37.733888 -800 0 -0.057107996 177.91423 
11.97 -0.92434427 -152.26097 -800 0 -22.26062 102.65102 -800 0 
	-800 0 -1.0520569 -81.512023 -800 0 -20.760384 -38.235429 
	-22.26062 102.65102 -800 0 -0.039531807 179.14854 -800 0 
	-800 0 -20.760384 -38.235429 -800 0 -0.056437095 177.90832 
11.98 -0.92759226 -153.00786 -800 0 -22.223429 102.24343 -800 0 
	-800 0 -1.046815 -82.425832 -800 0 -20.812642 -38.742779 
	-22.223429 102.24343 -800 0 -0.039829396 179.14378 -800 0 
	-800 0 -20.812642 -38.742779 -800 0 -0.055734558 177.90232 
11.99 -0.93077019 -153.75876 -800 0 -22.185106 101.8352 -800 0 
	-800 0 -1.0413955 -83.333664 -800 0 -20.865629 -39.254904 
	-22.185106 101.8352 -800 0 -0.040132529 179.13897 -800 0 
	-800 0 -20.865629 -39.254904 -800 0 -0.055003437 177.89619 
12 -0.93386838 -154.51388 -800 0 -22.14563 101.42633 -800 0 
	-800 0 -1.035807 -84.235563 -800 0 -20.919455 -39.770614 
	-22.14563 101.42633 -800 0 -0.040441385 179.13408 -800 0 
	-800 0 -20.919455 -39.770614 -800 0 -0.054247941 177.88992 
12.01 -0.93646743 -155.28619 -800 0 -22.105462 100.99661 -800 0 
	-800 0 -1.0328554 -85.127637 -800 0 -20.974946 -40.272848 
	-22.105462 100.99661 -800 0 -0.040800989 179.12935 -800 0 
	-800 0 -20.974946 -40.272848 -800 0 -0.053495333 177.88335 
12.02 -0.93903434 -156.06296 -800 0 -22.06411 100.56559 -800 0 
	-800 0 -1.0296998 -86.014063 -800 0 -21.03136 -40.776276 
	-22.06411 100.56559 -800 0 -0.041168204 179.12455 -800 0 
	-800 0 -21.03136 -40.776276 -800 0 -0.052728621 177.8766 
12.03 -0.94156109 -156.84441 -800 0 -22.02155 100.13328 -800 0 
	-800 0 -1.0263484 -86.894877 -800 0 -21.088682 -41.279712 
	-22.02155 100.13328 -800 0 -0.041543297 179.11969 -800 0 
	-800 0 -21.088682 -41.279712 -800 0 -0.051953268 177.86964 
12.04 -0.94403896 -157.63078 -800 0 -21.97776 99.699671 -800 0 
	-800 0 -1.0228093 -87.770115 -800 0 -21.146865 -41.782098 
	-21.97776 99.699671 -800 0 -0.041926549 179.11475 -800 0 
	-800 0 -21.146865 -41.782098 -800 0 -0.051174484 177.86248 
12.05 -0.94645848 -158.42228 -800 0 -21.932715 99.264769 -800 0 
	-800 0 -1.0190903 -88.639815 -800 0 -21.205839 -42.282527 
	-21.932715 99.264769 -800 0 -0.042318253 179.10975 -800 0 
	-800 0 -21.205839 -42.282527 -800 0 -0.050397004 177.85512 
12.06 -0.94880937 -159.21915 -800 0 -21.88639 98.828572 -800 0 
	-800 0 -1.0151991 -89.504013 -800 0 -21.265518 -42.78026 
	-21.88639 98.828572 -800 0 -0.042718716 179.10467 -800 0 
	-800 0 -21.265518 -42.78026 -800 0 -0.049624938 177.84758 
12.07 -0.95108049 -160.02166 -800 0 -21.83876 98.39108 -800 0 
	-800 0 -1.0111429 -90.362748 -800 0 -21.325807 -43.274723 
	-21.83876 98.39108 -800 0 -0.04312826 179.09951 -800 0 
	-800 0 -21.325807 -43.274723 -800 0 -0.048861713 177.83987 
12.08 -0.95325979 -160.83005 -800 0 -21.789799 97.952292 -800 0 
	-800 0 -1.0069289 -91.216057 -800 0 -21.386607 -43.765498 
	-21.789799 97.952292 -800 0 -0.043547219 179.09428 -800 0 
	-800 0 -21.386607 -43.765498 -800 0 -0.048110058 177.832 
12.09 -0.95533419 -161.64459 -800 0 -21.73948 97.512206 -800 0 
	-800 0 -1.0025642 -92.063979 -800 0 -21.447823 -44.252304 
	-21.73948 97.512206 -800 0 -0.043975947 179.08896 -800 0 
	-800 0 -21.447823 -44.252304 -800 0 -0.047372049 177.82399 
12.1 -0.95728957 -162.46556 -800 0 -21.687775 97.070821 -800 0 
	-800 0 -0.99805549 -92.906551 -800 0 -21.509363 -44.734975 
	-21.687775 97.070821 -800 0 -0.044414812 179.08356 -800 0 
	-800 0 -21.509363 -44.734975 -800 0 -0.046649174 177.81585 
12.11 -0.96339294 -163.27676 -800 0 -21.637918 96.608299 -800 0 
	-800 0 -0.99616979 -93.741395 -800 0 -21.572408 -45.194081 
	-21.637918 96.608299 -800 0 -0.044908184 179.07839 -800 0 
	-800 0 -21.572408 -45.194081 -800 0 -0.045966451 177.80746 
12.12 -0.9695381 -164.09501 -800 0 -21.586671 96.143133 -800 0 
	-800 0 -0.99409515 -94.571109 -800 0 -21.635607 -45.64915 
	-21.586671 96.143133 -800 0 -0.045414304 179.07313 -800 0 
	-800 0 -21.635607 -45.64915 -800 0 -0.04530016 177.79897 
12.13 -0.97571803 -164.92063 -800 0 -21.534004 95.675278 -800 0 
	-800 0 -0.99183861 -95.395726 -800 0 -21.698894 -46.100238 
	-21.534004 95.675278 -800 0 -0.045933684 179.0678 -800 0 
	-800 0 -21.698894 -46.100238 -800 0 -0.04465051 177.79042 
12.14 -0.98192485 -165.75397 -800 0 -21.479887 95.204684 -800 0 
	-800 0 -0.98940704 -96.21528 -800 0 -21.762208 -46.547445 
	-21.479887 95.204684 -800 0 -0.046466867 179.06238 -800 0 
	-800 0 -21.762208 -46.547445 -800 0 -0.044017448 177.7818 
12.15 -0.98814979 -166.5954 -800 0 -21.424287 94.7313 -800 0 
	-800 0 -0.98680712 -97.029806 -800 0 -21.8255 -46.990897 
	-21.424287 94.7313 -800 0 -0.047014421 179.05688 -800 0 
	-800 0 -21.8255 -46.990897 -800 0 -0.043400727 177.77314 
12.16 -0.99438308 -167.44529 -800 0 -21.367171 94.255071 -800 0 
	-800 0 -0.98404535 -97.839339 -800 0 -21.888726 -47.430738 
	-21.367171 94.255071 -800 0 -0.047576946 179.05129 -800 0 
	-800 0 -21.888726 -47.430738 -800 0 -0.042799952 177.76444 
12.17 -1.0006139 -168.30404 -800 0 -21.308504 93.775941 -800 0 
	-800 0 -0.98112804 -98.643913 -800 0 -21.951849 -47.867121 
	-21.308504 93.775941 -800 0 -0.048155073 179.04561 -800 0 
	-800 0 -21.951849 -47.867121 -800 0 -0.042214633 177.75571 
12.18 -1.0068302 -169.17206 -800 0 -21.248253 93.293851 -800 0 
	-800 0 -0.97806133 -99.443565 -800 0 -22.014838 -48.300202 
	-21.248253 93.293851 -800 0 -0.048749468 179.03984 -800 0 
	-800 0 -22.014838 -48.300202 -800 0 -0.041644213 177.74696 
12.19 -1.0130186 -170.04978 -800 0 -21.18638 92.808736 -800 0 
	-800 0 -0.9748512 -100.23833 -800 0 -22.077668 -48.730139 
	-21.18638 92.808736 -800 0 -0.049360835 179.03397 -800 0 
	-800 0 -22.077668 -48.730139 -800 0 -0.041088102 177.73819 
12.2 -1.0191646 -170.93767 -800 0 -21.122849 92.32053 -800 0 
	-800 0 -0.97150344 -101.02824 -800 0 -22.140316 -49.157082 
	-21.122849 92.32053 -800 0 -0.049989914 179.02801 -800 0 
	-800 0 -22.140316 -49.157082 -800 0 -0.040545691 177.72941 
12.21 -1.0285177 -171.82694 -800 0 -21.060591 91.806138 -800 0 
	-800 0 -0.96976574 -101.80776 -800 0 -22.203804 -49.563384 
	-21.060591 91.806138 -800 0 -0.050684916 179.02233 -800 0 
	-800 0 -22.203804 -49.563384 -800 0 -0.040037666 177.72046 
12.22 -1.0380147 -172.72716 -800 0 -20.996687 91.287144 -800 0 
	-800 0 -0.96786424 -102.58262 -800 0 -22.26707 -49.967156 
	-20.996687 91.287144 -800 0 -0.051401185 179.01657 -800 0 
	-800 0 -22.26707 -49.967156 -800 0 -0.03954183 177.71151 
12.23 -1.0476509 -173.63884 -800 0 -20.9311 90.763416 -800 0 
	-800 0 -0.96580496 -103.35284 -800 0 -22.330104 -50.368527 
	-20.9311 90.763416 -800 0 -0.052139689 179.01072 -800 0 
	-800 0 -22.330104 -50.368527 -800 0 -0.039057602 177.70256 
12.24 -1.0574204 -174.56256 -800 0 -20.863788 90.234815 -800 0 
	-800 0 -0.96359378 -104.11846 -800 0 -22.392896 -50.767617 
	-20.863788 90.234815 -800 0 -0.052901452 179.00478 -800 0 
	-800 0 -22.392896 -50.767617 -800 0 -0.038584425 177.69362 
12.25 -1.0673164 -175.4989 -800 0 -20.794711 89.701196 -800 0 
	-800 0 -0.96123638 -104.87952 -800 0 -22.455439 -51.164539 
	-20.794711 89.701196 -800 0 -0.053687557 178.99874 -800 0 
	-800 0 -22.455439 -51.164539 -800 0 -0.038121772 177.68469 
12.26 -1.0773307 -176.44848 -800 0 -20.723826 89.162404 -800 0 
	-800 0 -0.95873831 -105.63604 -800 0 -22.517728 -51.559395 
	-20.723826 89.162404 -800 0 -0.054499153 178.99261 -800 0 
	-800 0 -22.517728 -51.559395 -800 0 -0.037669141 177.67577 
12.27 -1.0874539 -177.41195 -800 0 -20.651088 88.618279 -800 0 
	-800 0 -0.95610498 -106.38806 -800 0 -22.579759 -51.952281 
	-20.651088 88.618279 -800 0 -0.055337457 178.98638 -800 0 
	-800 0 -22.579759 -51.952281 -800 0 -0.037226062 177.66686 
12.28 -1.097675 -178.39 -800 0 -20.576452 88.068647 -800 0 
	-800 0 -0.95334161 -107.13561 -800 0 -22.641529 -52.343284 
	-20.576452 88.068647 -800 0 -0.056203762 178.98004 -800 0 
	-800 0 -22.641529 -52.343284 -800 0 -0.036792094 177.65797 
12.29 -1.1079815 -179.38336 -800 0 -20.499872 87.513329 -800 0 
	-800 0 -0.95045332 -107.87874 -800 0 -22.703035 -52.732485 
	-20.499872 87.513329 -800 0 -0.057099438 178.9736 -800 0 
	-800 0 -22.703035 -52.732485 -800 0 -0.036366822 177.64909 
12.3 -1.1183588 179.6072 -800 0 -20.421298 86.952132 -800 0 
	-800 0 -0.94744503 -108.61747 -800 0 -22.764277 -53.119956 
	-20.421298 86.952132 -800 0 -0.058025942 178.96705 -800 0 
	-800 0 -22.764277 -53.119956 -800 0 -0.035949862 177.64023 
12.31 -1.1331048 178.59454 -800 0 -20.344725 86.358531 -800 0 
	-800 0 -0.94571075 -109.34508 -800 0 -22.825397 -53.490627 
	-20.344725 86.358531 -800 0 -0.059029526 178.96092 -800 0 
	-800 0 -22.825397 -53.490627 -800 0 -0.035560787 177.63129 
12.32 -1.1482156 177.56466 -800 0 -20.266218 85.757089 -800 0 
	-800 0 -0.94384112 -110.06852 -800 0 -22.886249 -53.859839 
	-20.266218 85.757089 -800 0 -0.060068718 178.95472 -800 0 
	-800 0 -22.886249 -53.859839 -800 0 -0.03517897 177.62236 
12.33 -1.163695 176.51665 -800 0 -20.18573 85.147513 -800 0 
	-800 0 -0.94184105 -110.78781 -800 0 -22.946834 -54.227647 
	-20.18573 85.147513 -800 0 -0.061145308 178.94842 -800 0 
	-800 0 -22.946834 -54.227647 -800 0 -0.034804103 177.61346 
12.34 -1.1795459 175.44957 -800 0 -20.103212 84.529498 -800 0 
	-800 0 -0.9397153 -111.503 -800 0 -23.00715 -54.594102 
	-20.103212 84.529498 -800 0 -0.062261199 178.94205 -800 0 
	-800 0 -23.00715 -54.594102 -800 0 -0.034435898 177.60458 
12.35 -1.1957704 174.36241 -800 0 -20.018614 83.902717 -800 0 
	-800 0 -0.93746851 -112.2141 -800 0 -23.067199 -54.95925 
	-20.018614 83.902717 -800 0 -0.063418409 178.93559 -800 0 
	-800 0 -23.067199 -54.95925 -800 0 -0.034074088 177.59571 
12.36 -1.2123692 173.2541 -800 0 -19.931887 83.266827 -800 0 
	-800 0 -0.9351052 -112.92116 -800 0 -23.126982 -55.323133 
	-19.931887 83.266827 -800 0 -0.064619087 178.92904 -800 0 
	-800 0 -23.126982 -55.323133 -800 0 -0.033718423 177.58686 
12.37 -1.229342 172.12351 -800 0 -19.842977 82.62146 -800 0 
	-800 0 -0.93262974 -113.6242 -800 0 -23.186499 -55.68579 
	-19.842977 82.62146 -800 0 -0.06586552 178.92242 -800 0 
	-800 0 -23.186499 -55.68579 -800 0 -0.033368671 177.57803 
12.38 -1.2466864 170.96942 -800 0 -19.75183 81.966231 -800 0 
	-800 0 -0.93004642 -114.32325 -800 0 -23.245751 -56.047256 
	-19.75183 81.966231 -800 0 -0.06716014 178.91571 -800 0 
	-800 0 -23.245751 -56.047256 -800 0 -0.033024614 177.56922 
12.39 -1.2643987 169.79056 -800 0 -19.658391 81.300727 -800 0 
	-800 0 -0.92735938 -115.01835 -800 0 -23.304739 -56.407562 
	-19.658391 81.300727 -800 0 -0.068505541 178.90891 -800 0 
	-800 0 -23.304739 -56.407562 -800 0 -0.032686049 177.56043 
12.4 -1.2824724 168.58555 -800 0 -19.562604 80.624511 -800 0 
	-800 0 -0.92457266 -115.70953 -800 0 -23.363465 -56.766739 
	-19.562604 80.624511 -800 0 -0.069904483 178.90204 -800 0 
	-800 0 -23.363465 -56.766739 -800 0 -0.032352786 177.55165 
12.41 -1.3067504 167.37379 -800 0 -19.469907 79.907981 -800 0 
	-800 0 -0.92289806 -116.39256 -800 0 -23.421445 -57.112153 
	-19.469907 79.907981 -800 0 -0.071394825 178.89582 -800 0 
	-800 0 -23.421445 -57.112153 -800 0 -0.032045423 177.54284 
12.42 -1.3318766 166.13405 -800 0 -19.375014 79.178154 -800 0 
	-800 0 -0.92111069 -117.07188 -800 0 -23.479168 -57.456597 
	-19.375014 79.178154 -800 0 -0.072944766 178.88956 -800 0 
	-800 0 -23.479168 -57.456597 -800 0 -0.031742627 177.53406 
12.43 -1.3578803 164.86476 -800 0 -19.277878 78.434446 -800 0 
	-800 0 -0.91921448 -117.74751 -800 0 -23.536634 -57.800094 
	-19.277878 78.434446 -800 0 -0.074557457 178.88329 -800 0 
	-800 0 -23.536634 -57.800094 -800 0 -0.031444248 177.52529 
12.44 -1.3847909 163.56419 -800 0 -19.178452 77.676235 -800 0 
	-800 0 -0.91721325 -118.41949 -800 0 -23.593845 -58.142663 
	-19.178452 77.676235 -800 0 -0.076236234 178.87701 -800 0 
	-800 0 -23.593845 -58.142663 -800 0 -0.031150146 177.51653 
12.45 -1.4126381 162.23054 -800 0 -19.07669 76.902864 -800 0 
	-800 0 -0.91511074 -119.08783 -800 0 -23.650801 -58.484323 
	-19.07669 76.902864 -800 0 -0.077984633 178.87072 -800 0 
	-800 0 -23.650801 -58.484323 -800 0 -0.030860187 177.5078 
12.46 -1.4414509 160.86185 -800 0 -18.972545 76.113632 -800 0 
	-800 0 -0.91291057 -119.75258 -800 0 -23.707504 -58.82509 
	-18.972545 76.113632 -800 0 -0.079806399 178.86444 -800 0 
	-800 0 -23.707504 -58.82509 -800 0 -0.030574248 177.49908 
12.47 -1.4712582 159.45603 -800 0 -18.86597 75.307798 -800 0 
	-800 0 -0.91061629 -120.41375 -800 0 -23.763955 -59.164979 
	-18.86597 75.307798 -800 0 -0.081705499 178.85818 -800 0 
	-800 0 -23.763955 -59.164979 -800 0 -0.030292211 177.49038 
12.48 -1.5020875 158.01086 -800 0 -18.756921 74.48457 -800 0 
	-800 0 -0.90823132 -121.07137 -800 0 -23.820154 -59.504005 
	-18.756921 74.48457 -800 0 -0.083686127 178.85196 -800 0 
	-800 0 -23.820154 -59.504005 -800 0 -0.030013966 177.4817 
12.49 -1.5339651 156.52393 -800 0 -18.645351 73.643109 -800 0 
	-800 0 -0.90575901 -121.72548 -800 0 -23.876103 -59.84218 
	-18.645351 73.643109 -800 0 -0.085752722 178.84578 -800 0 
	-800 0 -23.876103 -59.84218 -800 0 -0.029739407 177.47303 
12.5 -1.5669151 154.99268 -800 0 -18.531216 72.78252 -800 0 
	-800 0 -0.90320263 -122.3761 -800 0 -23.931802 -60.179517 
	-18.531216 72.78252 -800 0 -0.08790997 178.83967 -800 0 
	-800 0 -23.931802 -60.179517 -800 0 -0.029468436 177.46438 
12.51 -1.6095402 153.45187 -800 0 -18.422529 71.872829 -800 0 
	-800 0 -0.90298432 -123.01818 -800 0 -23.988851 -60.502529 
	-18.422529 71.872829 -800 0 -0.090161443 178.83466 -800 0 
	-800 0 -23.988851 -60.502529 -800 0 -0.029220903 177.45578 
12.52 -1.6541056 151.86387 -800 0 -18.311646 70.940761 -800 0 
	-800 0 -0.90265623 -123.65694 -800 0 -24.04566 -60.824904 
	-18.311646 70.940761 -800 0 -0.092508203 178.82983 -800 0 
	-800 0 -24.04566 -60.824904 -800 0 -0.028976564 177.44719 
12.53 -1.7007065 150.2257 -800 0 -18.198557 69.985242 -800 0 
	-800 0 -0.90222176 -124.29239 -800 0 -24.102231 -61.146651 
	-18.198557 69.985242 -800 0 -0.094954761 178.82522 -800 0 
	-800 0 -24.102231 -61.146651 -800 0 -0.028735339 177.43862 
12.54 -1.7494412 148.53415 -800 0 -18.083257 69.005134 -800 0 
	-800 0 -0.90168421 -124.92456 -800 0 -24.158564 -61.46778 
	-18.083257 69.005134 -800 0 -0.097505762 178.82085 -800 0 
	-800 0 -24.158564 -61.46778 -800 0 -0.02849715 177.43006 
12.55 -1.8004099 146.78579 -800 0 -17.965747 67.999234 -800 0 
	-800 0 -0.90104682 -125.55349 -800 0 -24.214659 -61.788299 
	-17.965747 67.999234 -800 0 -0.10016596 178.81677 -800 0 
	-800 0 -24.214659 -61.788299 -800 0 -0.028261921 177.42151 
12.56 -1.8537143 144.97691 -800 0 -17.846035 66.966273 -800 0 
	-800 0 -0.90031274 -126.17918 -800 0 -24.270517 -62.108218 
	-17.846035 66.966273 -800 0 -0.1029402 178.81303 -800 0 
	-800 0 -24.270517 -62.108218 -800 0 -0.028029582 177.41298 
12.57 -1.9094563 143.1035 -800 0 -17.724137 65.904908 -800 0 
	-800 0 -0.89948504 -126.80168 -800 0 -24.32614 -62.427543 
	-17.724137 65.904908 -800 0 -0.10583336 178.80966 -800 0 
	-800 0 -24.32614 -62.427543 -800 0 -0.027800065 177.40447 
12.58 -1.9677368 141.16127 -800 0 -17.600078 64.813724 -800 0 
	-800 0 -0.8985667 -127.42099 -800 0 -24.381526 -62.746282 
	-17.600078 64.813724 -800 0 -0.10885034 178.80673 -800 0 
	-800 0 -24.381526 -62.746282 -800 0 -0.027573305 177.39596 
12.59 -2.0286534 139.14558 -800 0 -17.473893 63.691226 -800 0 
	-800 0 -0.89756063 -128.03716 -800 0 -24.436677 -63.064441 
	-17.473893 63.691226 -800 0 -0.11199596 178.80429 -800 0 
	-800 0 -24.436677 -63.064441 -800 0 -0.027349241 177.38747 
12.6 -2.0922984 137.05142 -800 0 -17.34563 62.535843 -800 0 
	-800 0 -0.89646968 -128.65019 -800 0 -24.491593 -63.382026 
	-17.34563 62.535843 -800 0 -0.11527493 178.80242 -800 0 
	-800 0 -24.491593 -63.382026 -800 0 -0.027127813 177.37899 
12.61 -2.1714152 134.93973 -800 0 -17.226582 61.322635 -800 0 
	-800 0 -0.89567793 -129.26079 -800 0 -24.54579 -63.684992 
	-17.226582 61.322635 -800 0 -0.11861009 178.80249 -800 0 
	-800 0 -24.54579 -63.684992 -800 0 -0.026926985 177.3704 
12.62 -2.2548036 132.74464 -800 0 -17.106268 60.073217 -800 0 
	-800 0 -0.89478887 -129.86835 -800 0 -24.599752 -63.987493 
	-17.106268 60.073217 -800 0 -0.12206902 178.80335 -800 0 
	-800 0 -24.599752 -63.987493 -800 0 -0.026728286 177.36182 
12.63 -2.3426741 130.46042 -800 0 -16.984819 58.785971 -800 0 
	-800 0 -0.89380551 -130.47291 -800 0 -24.653478 -64.289533 
	-16.984819 58.785971 -800 0 -0.12565296 178.80508 -800 0 
	-800 0 -24.653478 -64.289533 -800 0 -0.02653167 177.35326 
12.64 -2.4352321 128.08086 -800 0 -16.862389 57.459235 -800 0 
	-800 0 -0.89273078 -131.07448 -800 0 -24.706969 -64.591114 
	-16.862389 57.459235 -800 0 -0.12936227 178.80779 -800 0 
	-800 0 -24.706969 -64.591114 -800 0 -0.026337095 177.3447 
12.65 -2.5326729 125.5993 -800 0 -16.739151 56.0913 -800 0 
	-800 0 -0.89156754 -131.67309 -800 0 -24.760225 -64.892238 
	-16.739151 56.0913 -800 0 -0.13319628 178.81158 -800 0 
	-800 0 -24.760225 -64.892238 -800 0 -0.026144517 177.33617 
12.66 -2.6351738 123.00853 -800 0 -16.615307 54.680426 -800 0 
	-800 0 -0.89031857 -132.26875 -800 0 -24.813247 -65.192909 
	-16.615307 54.680426 -800 0 -0.137153 178.81657 -800 0 
	-800 0 -24.813247 -65.192909 -800 0 -0.025953898 177.32764 
12.67 -2.7428857 120.30081 -800 0 -16.491083 53.224849 -800 0 
	-800 0 -0.88898658 -132.8615 -800 0 -24.866035 -65.493128 
	-16.491083 53.224849 -800 0 -0.14122894 178.82286 -800 0 
	-800 0 -24.866035 -65.493128 -800 0 -0.025765199 177.31913 
12.68 -2.8559207 117.46786 -800 0 -16.366737 51.722792 -800 0 
	-800 0 -0.88757422 -133.45135 -800 0 -24.91859 -65.792898 
	-16.366737 51.722792 -800 0 -0.14541881 178.8306 -800 0 
	-800 0 -24.91859 -65.792898 -800 0 -0.025578382 177.31063 
12.69 -2.9743376 114.50077 -800 0 -16.242561 50.172485 -800 0 
	-800 0 -0.88608406 -134.03833 -800 0 -24.970911 -66.092219 
	-16.242561 50.172485 -800 0 -0.14971516 178.83991 -800 0 
	-800 0 -24.970911 -66.092219 -800 0 -0.025393411 177.30214 
12.7 -3.0981236 111.39009 -800 0 -16.118879 48.572182 -800 0 
	-800 0 -0.88451862 -134.62247 -800 0 -25.022999 -66.391095 
	-16.118879 48.572182 -800 0 -0.15410813 178.85095 -800 0 
	-800 0 -25.022999 -66.391095 -800 0 -0.025210252 177.29366 
12.71 -3.2452375 108.23285 -800 0 -16.00981 46.911911 -800 0 
	-800 0 -0.88078149 -135.19718 -800 0 -25.070773 -66.71135 
	-16.00981 46.911911 -800 0 -0.15837352 178.86512 -800 0 
	-800 0 -25.070773 -66.71135 -800 0 -0.025026749 177.2853 
12.72 -3.3997323 104.92236 -800 0 -15.902762 45.201223 -800 0 
	-800 0 -0.87702021 -135.7692 -800 0 -25.118315 -67.030991 
	-15.902762 45.201223 -800 0 -0.16267331 178.88127 -800 0 
	-800 0 -25.118315 -67.030991 -800 0 -0.024844963 177.27695 
12.73 -3.5615229 101.44797 -800 0 -15.798187 43.43911 -800 0 
	-800 0 -0.87323614 -136.33854 -800 0 -25.165626 -67.350018 
	-15.798187 43.43911 -800 0 -0.16698608 178.89951 -800 0 
	-800 0 -25.165626 -67.350018 -800 0 -0.024664866 177.2686 
12.74 -3.7303649 97.798498 -800 0 -15.696569 41.624747 -800 0 
	-800 0 -0.86943058 -136.90524 -800 0 -25.212706 -67.668431 
	-15.696569 41.624747 -800 0 -0.17128695 178.91997 -800 0 
	-800 0 -25.212706 -67.668431 -800 0 -0.024486428 177.26027 
12.75 -3.9058094 93.962315 -800 0 -15.59843 39.757532 -800 0 
	-800 0 -0.86560479 -137.46932 -800 0 -25.259556 -67.986231 
	-15.59843 39.757532 -800 0 -0.17554742 178.94275 -800 0 
	-800 0 -25.259556 -67.986231 -800 0 -0.024309621 177.25194 
12.76 -4.0871521 89.927499 -800 0 -15.504321 37.837121 -800 0 
	-800 0 -0.86176 -138.03079 -800 0 -25.306176 -68.303416 
	-15.504321 37.837121 -800 0 -0.17973532 178.96793 -800 0 
	-800 0 -25.306176 -68.303416 -800 0 -0.024134419 177.24363 
12.77 -4.2733742 85.682102 -800 0 -15.414828 35.863474 -800 0 
	-800 0 -0.85789739 -138.58968 -800 0 -25.352565 -68.619987 
	-15.414828 35.863474 -800 0 -0.18381481 178.99559 -800 0 
	-800 0 -25.352565 -68.619987 -800 0 -0.023960795 177.23532 
12.78 -4.4630795 81.21452 -800 0 -15.33056 33.836894 -800 0 
	-800 0 -0.85401809 -139.14601 -800 0 -25.398725 -68.935944 
	-15.33056 33.836894 -800 0 -0.18774663 179.02577 -800 0 
	-800 0 -25.398725 -68.935944 -800 0 -0.023788723 177.22702 
12.79 -4.6544305 76.514014 -800 0 -15.252153 31.758073 -800 0 
	-800 0 -0.8501232 -139.6998 -800 0 -25.444655 -69.251286 
	-15.252153 31.758073 -800 0 -0.19148836 179.0585 -800 0 
	-800 0 -25.444655 -69.251286 -800 0 -0.023618179 177.21872 
12.8 -4.8450895 71.571409 -800 0 -15.180255 29.628127 -800 0 
	-800 0 -0.8462138 -140.25108 -800 0 -25.490355 -69.566014 
	-15.180255 29.628127 -800 0 -0.194995 179.09375 -800 0 
	-800 0 -25.490355 -69.566014 -800 0 -0.023449139 177.21044 
12.81 -5.0594201 66.539464 -800 0 -15.130287 27.470691 -800 0 
	-800 0 -0.84950188 -140.80255 -800 0 -25.543433 -69.7982 
	-15.130287 27.470691 -800 0 -0.19787962 179.13173 -800 0 
	-800 0 -25.543433 -69.7982 -800 0 -0.023340398 177.20182 
12.82 -5.270687 61.262883 -800 0 -15.088504 25.272059 -800 0 
	-800 0 -0.85264477 -141.35169 -800 0 -25.596302 -70.030438 
	-15.088504 25.272059 -800 0 -0.20041584 179.17179 -800 0 
	-800 0 -25.596302 -70.030438 -800 0 -0.02323225 177.19323 
12.83 -5.4752025 55.739543 -800 0 -15.055466 23.035199 -800 0 
	-800 0 -0.8556456 -141.89851 -800 0 -25.648961 -70.262729 
	-15.055466 23.035199 -800 0 -0.20256203 179.21373 -800 0 
	-800 0 -25.648961 -70.262729 -800 0 -0.023124684 177.18464 
12.84 -5.6687182 49.972343 -800 0 -15.031701 20.763532 -800 0 
	-800 0 -0.85850742 -142.44301 -800 0 -25.70141 -70.495072 
	-15.031701 20.763532 -800 0 -0.20427917 179.25733 -800 0 
	-800 0 -25.70141 -70.495072 -800 0 -0.023017692 177.17606 
12.85 -5.8465325 43.970574 -800 0 -15.017692 18.460918 -800 0 
	-800 0 -0.86123325 -142.98522 -800 0 -25.75365 -70.727466 
	-15.017692 18.460918 -800 0 -0.20553211 179.30233 -800 0 
	-800 0 -25.75365 -70.727466 -800 0 -0.022911265 177.16749 
12.86 -6.003682 37.751178 -800 0 -15.01387 16.131622 -800 0 
	-800 0 -0.86382604 -143.52514 -800 0 -25.80568 -70.95991 
	-15.01387 16.131622 -800 0 -0.20629083 179.34841 -800 0 
	-800 0 -25.80568 -70.95991 -800 0 -0.022805396 177.15894 
12.87 -6.1352212 31.339669 -800 0 -15.020602 13.780276 -800 0 
	-800 0 -0.8662887 -144.06281 -800 0 -25.857501 -71.192404 
	-15.020602 13.780276 -800 0 -0.20653162 179.39523 -800 0 
	-800 0 -25.857501 -71.192404 -800 0 -0.022700076 177.1504 
12.88 -6.2365781 24.77041 -800 0 -15.038182 11.411819 -800 0 
	-800 0 -0.86862406 -144.59821 -800 0 -25.909113 -71.424948 
	-15.038182 11.411819 -800 0 -0.20623808 179.44244 -800 0 
	-800 0 -25.909113 -71.424948 -800 0 -0.022595297 177.14186 
12.89 -6.3039481 18.086013 -800 0 -15.066825 9.0314342 -800 0 
	-800 0 -0.87083492 -145.13139 -800 0 -25.960515 -71.65754 
	-15.066825 9.0314342 -800 0 -0.20540187 179.48963 -800 0 
	-800 0 -25.960515 -71.65754 -800 0 -0.022491053 177.13334 
12.9 -6.3346674 11.335733 -800 0 -15.106663 6.6444699 -800 0 
	-800 0 -0.87292402 -145.66234 -800 0 -26.011708 -71.89018 
	-15.106663 6.6444699 -800 0 -0.20402327 179.53641 -800 0 
	-800 0 -26.011708 -71.89018 -800 0 -0.022387335 177.12482 
12.91 -6.3644754 4.7103677 -800 0 -15.169745 4.313491 -800 0 
	-800 0 -0.87117819 -146.18464 -800 0 -26.057185 -72.165814 
	-15.169745 4.313491 -800 0 -0.2018572 179.58109 -800 0 
	-800 0 -26.057185 -72.165814 -800 0 -0.022262331 177.11652 
12.92 -6.358233 -1.8941521 -800 0 -15.243602 1.9922407 -800 0 
	-800 0 -0.86938825 -146.70475 -800 0 -26.102447 -72.441128 
	-15.243602 1.9922407 -800 0 -0.19920775 179.62439 -800 0 
	-800 0 -26.102447 -72.441128 -800 0 -0.02213819 177.10821 
12.93 -6.3167753 -8.4281528 -800 0 -15.32802 -0.31432228 -800 0 
	-800 0 -0.86755553 -147.2227 -800 0 -26.147494 -72.716122 
	-15.32802 -0.31432228 -800 0 -0.19610489 179.66598 -800 0 
	-800 0 -26.147494 -72.716122 -800 0 -0.022014899 177.09992 
12.94 -6.2422573 -14.845541 -800 0 -15.422707 -2.6014707 -800 0 
	-800 0 -0.86568137 -147.73851 -800 0 -26.192325 -72.990794 
	-15.422707 -2.6014707 -800 0 -0.19258449 179.70558 -800 0 
	-800 0 -26.192325 -72.990794 -800 0 -0.021892446 177.09163 
12.95 -6.137918 -21.106135 -800 0 -15.527304 -4.8647703 -800 0 
	-800 0 -0.86376702 -148.25219 -800 0 -26.236941 -73.265144 
	-15.527304 -4.8647703 -800 0 -0.18868719 179.74296 -800 0 
	-800 0 -26.236941 -73.265144 -800 0 -0.021770819 177.08335 
12.96 -6.0077603 -27.177205 -800 0 -15.641392 -7.1001309 -800 0 
	-800 0 -0.86181376 -148.76375 -800 0 -26.281342 -73.539171 
	-15.641392 -7.1001309 -800 0 -0.18445711 179.77793 -800 0 
	-800 0 -26.281342 -73.539171 -800 0 -0.021650006 177.07507 
12.97 -5.8562046 -33.034129 -800 0 -15.764502 -9.3038471 -800 0 
	-800 0 -0.85982278 -149.27323 -800 0 -26.325528 -73.812875 
	-15.764502 -9.3038471 -800 0 -0.17994056 179.81033 -800 0 
	-800 0 -26.325528 -73.812875 -800 0 -0.021529997 177.0668 
12.98 -5.6877662 -38.660249 -800 0 -15.896123 -11.472626 -800 0 
	-800 0 -0.85779529 -149.78063 -800 0 -26.369499 -74.086255 
	-15.896123 -11.472626 -800 0 -0.17518477 179.84006 -800 0 
	-800 0 -26.369499 -74.086255 -800 0 -0.02141078 177.05853 
12.99 -5.5067932 -44.046145 -800 0 -16.035713 -13.603605 -800 0 
	-800 0 -0.85573244 -150.28598 -800 0 -26.413255 -74.35931 
	-16.035713 -13.603605 -800 0 -0.17023673 179.86707 -800 0 
	-800 0 -26.413255 -74.35931 -800 0 -0.021292345 177.05027 
13 -5.3172789 -49.188535 -800 0 -16.182708 -15.694354 -800 0 
	-800 0 -0.85363536 -150.78929 -800 0 -26.456797 -74.63204 
	-16.182708 -15.694354 -800 0 -0.16514216 179.89134 -800 0 
	-800 0 -26.456797 -74.63204 -800 0 -0.021174681 177.04202 
13.01 -5.1520716 -54.034843 -800 0 -16.343771 -17.667718 -800 0 
	-800 0 -0.85251487 -151.28923 -800 0 -26.500719 -74.892468 
	-16.343771 -17.667718 -800 0 -0.15991224 179.91128 -800 0 
	-800 0 -26.500719 -74.892468 -800 0 -0.021077487 177.03372 
13.02 -4.9826652 -58.656557 -800 0 -16.510451 -19.595966 -800 0 
	-800 0 -0.85134748 -151.78721 -800 0 -26.544431 -75.152713 
	-16.510451 -19.595966 -800 0 -0.15464961 179.92862 -800 0 
	-800 0 -26.544431 -75.152713 -800 0 -0.020980789 177.02543 
13.03 -4.8114755 -63.059464 -800 0 -16.682185 -21.478341 -800 0 
	-800 0 -0.85013447 -152.28326 -800 0 -26.587935 -75.412774 
	-16.682185 -21.478341 -800 0 -0.14938841 179.94347 -800 0 
	-800 0 -26.587935 -75.412774 -800 0 -0.02088458 177.01715 
13.04 -4.6405064 -67.251348 -800 0 -16.858428 -23.314425 -800 0 
	-800 0 -0.84887712 -152.77738 -800 0 -26.63123 -75.67265 
	-16.858428 -23.314425 -800 0 -0.14415892 179.95594 -800 0 
	-800 0 -26.63123 -75.67265 -800 0 -0.020788854 177.00887 
13.05 -4.4713771 -71.241311 -800 0 -17.038652 -25.104099 -800 0 
	-800 0 -0.84757664 -153.26959 -800 0 -26.674316 -75.932339 
	-17.038652 -25.104099 -800 0 -0.13898762 179.96617 -800 0 
	-800 0 -26.674316 -75.932339 -800 0 -0.020693603 177.0006 
13.06 -4.3053603 -75.039221 -800 0 -17.222357 -26.847515 -800 0 
	-800 0 -0.84623425 -153.75992 -800 0 -26.717193 -76.191841 
	-17.222357 -26.847515 -800 0 -0.1338972 179.9743 -800 0 
	-800 0 -26.717193 -76.191841 -800 0 -0.020598823 176.99233 
13.07 -4.1434269 -78.6553 -800 0 -17.409066 -28.545063 -800 0 
	-800 0 -0.84485112 -154.24838 -800 0 -26.759861 -76.451153 
	-17.409066 -28.545063 -800 0 -0.12890673 179.98048 -800 0 
	-800 0 -26.759861 -76.451153 -800 0 -0.020504506 176.98406 
13.08 -3.9862911 -82.09981 -800 0 -17.598332 -30.197334 -800 0 
	-800 0 -0.84342842 -154.73498 -800 0 -26.80232 -76.710276 
	-17.598332 -30.197334 -800 0 -0.12403189 179.98484 -800 0 
	-800 0 -26.80232 -76.710276 -800 0 -0.020410648 176.9758 
13.09 -3.8344533 -85.382837 -800 0 -17.789737 -31.805092 -800 0 
	-800 0 -0.84196728 -155.21974 -800 0 -26.844571 -76.969208 
	-17.789737 -31.805092 -800 0 -0.11928522 179.98754 -800 0 
	-800 0 -26.844571 -76.969208 -800 0 -0.020317242 176.96754 
13.1 -3.6882386 -88.514136 -800 0 -17.982891 -33.369247 -800 0 
	-800 0 -0.84046882 -155.70269 -800 0 -26.886614 -77.227947 
	-17.982891 -33.369247 -800 0 -0.11467645 179.98873 -800 0 
	-800 0 -26.886614 -77.227947 -800 0 -0.020224282 176.95929 
13.11 -3.5654476 -91.47813 -800 0 -18.180716 -34.816578 -800 0 
	-800 0 -0.83949922 -156.18282 -800 0 -26.928623 -77.479216 
	-18.180716 -34.816578 -800 0 -0.11029229 179.98752 -800 0 
	-800 0 -26.928623 -77.479216 -800 0 -0.020144255 176.95101 
13.12 -3.4469849 -94.312261 -800 0 -18.379198 -36.223448 -800 0 
	-800 0 -0.83848666 -156.6612 -800 0 -26.970428 -77.73037 
	-18.379198 -36.223448 -800 0 -0.10606452 179.98518 -800 0 
	-800 0 -26.970428 -77.73037 -800 0 -0.02006451 176.94274 
13.13 -3.3329486 -97.024276 -800 0 -18.578066 -37.591159 -800 0 
	-800 0 -0.83743231 -157.13784 -800 0 -27.012029 -77.981409 
	-18.578066 -37.591159 -800 0 -0.10199425 179.98183 -800 0 
	-800 0 -27.012029 -77.981409 -800 0 -0.019985043 176.93447 
13.14 -3.2233681 -99.62151 -800 0 -18.777074 -38.921039 -800 0 
	-800 0 -0.83633732 -157.61276 -800 0 -27.053426 -78.232331 
	-18.777074 -38.921039 -800 0 -0.098081193 179.97756 -800 0 
	-800 0 -27.053426 -78.232331 -800 0 -0.019905852 176.9262 
13.15 -3.1182188 -102.11088 -800 0 -18.976001 -40.214432 -800 0 
	-800 0 -0.8352028 -158.08597 -800 0 -27.094618 -78.483136 
	-18.976001 -40.214432 -800 0 -0.094323887 179.9725 -800 0 
	-800 0 -27.094618 -78.483136 -800 0 -0.019826931 176.91794 
13.16 -3.0174346 -104.49889 -800 0 -19.174648 -41.472682 -800 0 
	-800 0 -0.83402986 -158.55748 -800 0 -27.135607 -78.733821 
	-19.174648 -41.472682 -800 0 -0.090719922 179.96673 -800 0 
	-800 0 -27.135607 -78.733821 -800 0 -0.019748279 176.90968 
13.17 -2.9209184 -106.79163 -800 0 -19.372835 -42.697128 -800 0 
	-800 0 -0.8328196 -159.02733 -800 0 -27.176392 -78.984385 
	-19.372835 -42.697128 -800 0 -0.087266117 179.96035 -800 0 
	-800 0 -27.176392 -78.984385 -800 0 -0.019669891 176.90142 
13.18 -2.8285498 -108.99479 -800 0 -19.570404 -43.889092 -800 0 
	-800 0 -0.83157306 -159.49551 -800 0 -27.216973 -79.234828 
	-19.570404 -43.889092 -800 0 -0.083958689 179.95342 -800 0 
	-800 0 -27.216973 -79.234828 -800 0 -0.019591765 176.89316 
13.19 -2.7401925 -111.11371 -800 0 -19.767213 -45.049871 -800 0 
	-800 0 -0.83029132 -159.96205 -800 0 -27.25735 -79.485146 
	-19.767213 -45.049871 -800 0 -0.080793391 179.94604 -800 0 
	-800 0 -27.25735 -79.485146 -800 0 -0.019513897 176.88491 
13.2 -2.655699 -113.15333 -800 0 -19.963136 -46.180737 -800 0 
	-800 0 -0.82897541 -160.42696 -800 0 -27.297524 -79.73534 
	-19.963136 -46.180737 -800 0 -0.077765638 179.93825 -800 0 
	-800 0 -27.297524 -79.73534 -800 0 -0.019436285 176.87666 
13.21 -2.585367 -115.09947 -800 0 -20.158658 -47.217905 -800 0 
	-800 0 -0.82914239 -160.88597 -800 0 -27.337809 -79.958322 
	-20.158658 -47.217905 -800 0 -0.074966333 179.92965 -800 0 
	-800 0 -27.337809 -79.958322 -800 0 -0.019383202 176.86837 
13.22 -2.5177769 -116.97719 -800 0 -20.352913 -48.229024 -800 0 
	-800 0 -0.82925586 -161.34349 -800 0 -27.377909 -80.181341 
	-20.352913 -48.229024 -800 0 -0.07229221 179.92083 -800 0 
	-800 0 -27.377909 -80.181341 -800 0 -0.019330078 176.86008 
13.23 -2.4528334 -118.7903 -800 0 -20.545834 -49.215235 -800 0 
	-800 0 -0.82931709 -161.79952 -800 0 -27.417826 -80.404397 
	-20.545834 -49.215235 -800 0 -0.069737905 179.91182 -800 0 
	-800 0 -27.417826 -80.404397 -800 0 -0.019276911 176.85179 
13.24 -2.3904379 -120.54239 -800 0 -20.737368 -50.177636 -800 0 
	-800 0 -0.82932733 -162.25408 -800 0 -27.457558 -80.627487 
	-20.737368 -50.177636 -800 0 -0.067298119 179.90267 -800 0 
	-800 0 -27.457558 -80.627487 -800 0 -0.019223704 176.84351 
13.25 -2.3304903 -122.23679 -800 0 -20.927466 -51.117281 -800 0 
	-800 0 -0.82928781 -162.70718 -800 0 -27.497107 -80.85061 
	-20.927466 -51.117281 -800 0 -0.064967653 179.89341 -800 0 
	-800 0 -27.497107 -80.85061 -800 0 -0.019170457 176.83522 
13.26 -2.2728909 -123.87664 -800 0 -21.116089 -52.035182 -800 0 
	-800 0 -0.82919973 -163.15884 -800 0 -27.536472 -81.073765 
	-21.116089 -52.035182 -800 0 -0.062741438 179.88408 -800 0 
	-800 0 -27.536472 -81.073765 -800 0 -0.01911717 176.82694 
13.27 -2.2175406 -125.46485 -800 0 -21.303205 -52.932307 -800 0 
	-800 0 -0.82906432 -163.60908 -800 0 -27.575653 -81.296951 
	-21.303205 -52.932307 -800 0 -0.060614549 179.87468 -800 0 
	-800 0 -27.575653 -81.296951 -800 0 -0.019063844 176.81866 
13.28 -2.1643422 -127.00417 -800 0 -21.488788 -53.809581 -800 0 
	-800 0 -0.82888276 -164.0579 -800 0 -27.614651 -81.520165 
	-21.488788 -53.809581 -800 0 -0.058582226 179.86526 -800 0 
	-800 0 -27.614651 -81.520165 -800 0 -0.019010481 176.81038 
13.29 -2.1132008 -128.49715 -800 0 -21.672817 -54.66789 -800 0 
	-800 0 -0.82865624 -164.50532 -800 0 -27.653465 -81.743406 
	-21.672817 -54.66789 -800 0 -0.056639881 179.85583 -800 0 
	-800 0 -27.653465 -81.743406 -800 0 -0.01895708 176.8021 
13.3 -2.0640246 -129.94619 -800 0 -21.855276 -55.50808 -800 0 
	-800 0 -0.8283859 -164.95135 -800 0 -27.692096 -81.966673 
	-21.855276 -55.50808 -800 0 -0.054783104 179.8464 -800 0 
	-800 0 -27.692096 -81.966673 -800 0 -0.018903642 176.79382 
13.31 -2.0233778 -131.33732 -800 0 -22.035161 -56.27489 -800 0 
	-800 0 -0.8284323 -165.39532 -800 0 -27.730284 -82.185668 
	-22.035161 -56.27489 -800 0 -0.053091692 179.83681 -800 0 
	-800 0 -27.730284 -82.185668 -800 0 -0.018861104 176.78554 
13.32 -1.984086 -132.69019 -800 0 -22.213406 -57.026388 -800 0 
	-800 0 -0.82843321 -165.83796 -800 0 -27.768294 -82.404729 
	-22.213406 -57.026388 -800 0 -0.051473765 179.82728 -800 0 
	-800 0 -27.768294 -82.404729 -800 0 -0.018818421 176.77725 
13.33 -1.9460972 -134.00667 -800 0 -22.390018 -57.763262 -800 0 
	-800 0 -0.82838979 -166.27928 -800 0 -27.806124 -82.623855 
	-22.390018 -57.763262 -800 0 -0.049925575 179.81783 -800 0 
	-800 0 -27.806124 -82.623855 -800 0 -0.018775595 176.76897 
13.34 -1.9093606 -135.28852 -800 0 -22.565002 -58.486167 -800 0 
	-800 0 -0.82830318 -166.71928 -800 0 -27.843776 -82.843045 
	-22.565002 -58.486167 -800 0 -0.048443567 179.80845 -800 0 
	-800 0 -27.843776 -82.843045 -800 0 -0.018732628 176.76068 
13.35 -1.8738268 -136.53737 -800 0 -22.738369 -59.195726 -800 0 
	-800 0 -0.82817451 -167.15799 -800 0 -27.881249 -83.062296 
	-22.738369 -59.195726 -800 0 -0.047024366 179.79917 -800 0 
	-800 0 -27.881249 -83.062296 -800 0 -0.018689521 176.7524 
13.36 -1.8394479 -137.7548 -800 0 -22.910129 -59.892533 -800 0 
	-800 0 -0.82800489 -167.59542 -800 0 -27.918544 -83.281606 
	-22.910129 -59.892533 -800 0 -0.045664777 179.78998 -800 0 
	-800 0 -27.918544 -83.281606 -800 0 -0.018646277 176.74412 
13.37 -1.806178 -138.94226 -800 0 -23.080295 -60.577153 -800 0 
	-800 0 -0.82779544 -168.03157 -800 0 -27.955662 -83.500974 
	-23.080295 -60.577153 -800 0 -0.044361769 179.78088 -800 0 
	-800 0 -27.955662 -83.500974 -800 0 -0.018602895 176.73583 
13.38 -1.7739724 -140.10113 -800 0 -23.24888 -61.250123 -800 0 
	-800 0 -0.82754726 -168.46646 -800 0 -27.992601 -83.720397 
	-23.24888 -61.250123 -800 0 -0.043112475 179.77189 -800 0 
	-800 0 -27.992601 -83.720397 -800 0 -0.018559379 176.72755 
13.39 -1.7427884 -141.23272 -800 0 -23.415898 -61.911954 -800 0 
	-800 0 -0.82726143 -168.90011 -800 0 -28.029364 -83.939873 
	-23.415898 -61.911954 -800 0 -0.041914181 179.763 -800 0 
	-800 0 -28.029364 -83.939873 -800 0 -0.018515729 176.71926 
13.4 -1.7125849 -142.33823 -800 0 -23.581366 -62.563135 -800 0 
	-800 0 -0.82693903 -169.33252 -800 0 -28.065949 -84.1594 
	-23.581366 -62.563135 -800 0 -0.040764319 179.75422 -800 0 
	-800 0 -28.065949 -84.1594 -800 0 -0.018471947 176.71098 
13.41 -1.6878105 -143.40476 -800 0 -23.743372 -63.156035 -800 0 
	-800 0 -0.82698868 -169.76365 -800 0 -28.101568 -84.376574 
	-23.743372 -63.156035 -800 0 -0.039728526 179.74549 -800 0 
	-800 0 -28.101568 -84.376574 -800 0 -0.018433756 176.70267 
13.42 -1.6636942 -144.44845 -800 0 -23.903867 -63.74012 -800 0 
	-800 0 -0.82699992 -170.19359 -800 0 -28.137011 -84.593796 
	-23.903867 -63.74012 -800 0 -0.038733306 179.73688 -800 0 
	-800 0 -28.137011 -84.593796 -800 0 -0.01839535 176.69436 
13.43 -1.6402149 -145.47026 -800 0 -24.062871 -64.315771 -800 0 
	-800 0 -0.82697378 -170.62236 -800 0 -28.172277 -84.811064 
	-24.062871 -64.315771 -800 0 -0.037776636 179.7284 -800 0 
	-800 0 -28.172277 -84.811064 -800 0 -0.018356731 176.68605 
13.44 -1.6173515 -146.4711 -800 0 -24.220407 -64.883352 -800 0 
	-800 0 -0.8269113 -171.04998 -800 0 -28.207366 -85.028373 
	-24.220407 -64.883352 -800 0 -0.036856607 179.72003 -800 0 
	-800 0 -28.207366 -85.028373 -800 0 -0.018317901 176.67773 
13.45 -1.5950841 -147.45184 -800 0 -24.376495 -65.443211 -800 0 
	-800 0 -0.82681349 -171.47645 -800 0 -28.24228 -85.245722 
	-24.376495 -65.443211 -800 0 -0.035971416 179.71178 -800 0 
	-800 0 -28.24228 -85.245722 -800 0 -0.018278862 176.66942 
13.46 -1.573393 -148.4133 -800 0 -24.531155 -65.995678 -800 0 
	-800 0 -0.82668133 -171.90179 -800 0 -28.277019 -85.463108 
	-24.531155 -65.995678 -800 0 -0.035119358 179.70365 -800 0 
	-800 0 -28.277019 -85.463108 -800 0 -0.018239616 176.6611 
13.47 -1.5522593 -149.35626 -800 0 -24.684409 -66.541067 -800 0 
	-800 0 -0.82651582 -172.326 -800 0 -28.311584 -85.680524 
	-24.684409 -66.541067 -800 0 -0.034298822 179.69563 -800 0 
	-800 0 -28.311584 -85.680524 -800 0 -0.018200165 176.65279 
13.48 -1.5316648 -150.28146 -800 0 -24.836276 -67.07968 -800 0 
	-800 0 -0.82631794 -172.74911 -800 0 -28.345974 -85.897969 
	-24.836276 -67.07968 -800 0 -0.033508288 179.68773 -800 0 
	-800 0 -28.345974 -85.897969 -800 0 -0.01816051 176.64447 
13.49 -1.5115918 -151.18959 -800 0 -24.986778 -67.611802 -800 0 
	-800 0 -0.82608863 -173.17111 -800 0 -28.380191 -86.115437 
	-24.986778 -67.611802 -800 0 -0.032746317 179.67994 -800 0 
	-800 0 -28.380191 -86.115437 -800 0 -0.018120654 176.63615 
13.5 -1.4920235 -152.08133 -800 0 -25.135934 -68.137708 -800 0 
	-800 0 -0.82582882 -173.59203 -800 0 -28.414236 -86.332922 
	-25.135934 -68.137708 -800 0 -0.032011546 179.67226 -800 0 
	-800 0 -28.414236 -86.332922 -800 0 -0.018080597 176.62783 
13.51 -1.4761553 -152.94662 -800 0 -25.281857 -68.615859 -800 0 
	-800 0 -0.82844364 -174.01151 -800 0 -28.452206 -86.504173 
	-25.281857 -68.615859 -800 0 -0.031357119 179.66467 -800 0 
	-800 0 -28.452206 -86.504173 -800 0 -0.018074494 176.61932 
13.52 -1.4606108 -153.79738 -800 0 -25.426494 -69.089006 -800 0 
	-800 0 -0.83099018 -174.43001 -800 0 -28.490029 -86.675825 
	-25.426494 -69.089006 -800 0 -0.030725164 179.65719 -800 0 
	-800 0 -28.490029 -86.675825 -800 0 -0.018067709 176.61082 
13.53 -1.4453827 -154.63415 -800 0 -25.569867 -69.557361 -800 0 
	-800 0 -0.83346976 -174.84755 -800 0 -28.527706 -86.847869 
	-25.569867 -69.557361 -800 0 -0.030114635 179.64983 -800 0 
	-800 0 -28.527706 -86.847869 -800 0 -0.01806025 176.60231 
13.54 -1.4304637 -155.45743 -800 0 -25.711995 -70.021124 -800 0 
	-800 0 -0.8358836 -175.26413 -800 0 -28.56524 -87.020288 
	-25.711995 -70.021124 -800 0 -0.029524543 179.64257 -800 0 
	-800 0 -28.56524 -87.020288 -800 0 -0.018052119 176.5938 
13.55 -1.4158467 -156.2677 -800 0 -25.852899 -70.480489 -800 0 
	-800 0 -0.83823289 -175.67976 -800 0 -28.602631 -87.193061 
	-25.852899 -70.480489 -800 0 -0.028953951 179.63542 -800 0 
	-800 0 -28.602631 -87.193061 -800 0 -0.018043323 176.58529 
13.56 -1.4015247 -157.06544 -800 0 -25.992598 -70.93564 -800 0 
	-800 0 -0.84051887 -176.09447 -800 0 -28.639882 -87.366153 
	-25.992598 -70.93564 -800 0 -0.028401973 179.62837 -800 0 
	-800 0 -28.639882 -87.366153 -800 0 -0.018033864 176.57678 
13.57 -1.387491 -157.85108 -800 0 -26.131111 -71.386754 -800 0 
	-800 0 -0.84274269 -176.50827 -800 0 -28.676997 -87.539503 
	-26.131111 -71.386754 -800 0 -0.027867768 179.62142 -800 0 
	-800 0 -28.676997 -87.539503 -800 0 -0.018023744 176.56826 
13.58 -1.3737388 -158.62505 -800 0 -26.268458 -71.833999 -800 0 
	-800 0 -0.8449059 -176.92118 -800 0 -28.713979 -87.712999 
	-26.268458 -71.833999 -800 0 -0.02735054 179.61457 -800 0 
	-800 0 -28.713979 -87.712999 -800 0 -0.018012963 176.55974 
13.59 -1.3602618 -159.38775 -800 0 -26.404657 -72.277537 -800 0 
	-800 0 -0.84701167 -177.33327 -800 0 -28.750826 -87.886423 
	-26.404657 -72.277537 -800 0 -0.026849531 179.60781 -800 0 
	-800 0 -28.750826 -87.886423 -800 0 -0.018001527 176.55122 
13.6 -1.3470535 -160.13957 -800 0 -26.539725 -72.717521 -800 0 
	-800 0 -0.8490694 -177.7446 -800 0 -28.787511 -88.059346 
	-26.539725 -72.717521 -800 0 -0.026364027 179.60115 -800 0 
	-800 0 -28.787511 -88.059346 -800 0 -0.017989475 176.54269 
13.61 -1.3364755 -160.87286 -800 0 -26.67193 -73.118476 -800 0 
	-800 0 -0.84935233 -178.14838 -800 0 -28.819072 -88.259891 
	-26.67193 -73.118476 -800 0 -0.025935557 179.59459 -800 0 
	-800 0 -28.819072 -88.259891 -800 0 -0.017972539 176.53433 
13.62 -1.3260613 -161.5964 -800 0 -26.803063 -73.516669 -800 0 
	-800 0 -0.84972076 -178.55121 -800 0 -28.849905 -88.459822 
	-26.803063 -73.516669 -800 0 -0.025519772 179.58811 -800 0 
	-800 0 -28.849905 -88.459822 -800 0 -0.017956019 176.52596 
13.63 -1.3158086 -162.31051 -800 0 -26.933142 -73.912219 -800 0 
	-800 0 -0.8501167 -178.95204 -800 0 -28.880058 -88.665252 
	-26.933142 -73.912219 -800 0 -0.025116127 179.58173 -800 0 
	-800 0 -28.880058 -88.665252 -800 0 -0.017939948 176.51759 
13.64 -1.3057158 -163.01549 -800 0 -27.062183 -74.305243 -800 0 
	-800 0 -0.85032942 -179.35144 -800 0 -28.910765 -88.875328 
	-27.062183 -74.305243 -800 0 -0.024724104 179.57543 -800 0 
	-800 0 -28.910765 -88.875328 -800 0 -0.017922554 176.50923 
13.65 -1.2957817 -163.71164 -800 0 -27.190202 -74.695847 -800 0 
	-800 0 -0.85043322 -179.75049 -800 0 -28.941868 -89.083775 
	-27.190202 -74.695847 -800 0 -0.024343209 179.56922 -800 0 
	-800 0 -28.941868 -89.083775 -800 0 -0.017903963 176.50086 
13.66 -1.2860046 -164.39923 -800 0 -27.317217 -75.084135 -800 0 
	-800 0 -0.85051366 179.85093 -800 0 -28.972899 -89.290475 
	-27.317217 -75.084135 -800 0 -0.023972975 179.56309 -800 0 
	-800 0 -28.972899 -89.290475 -800 0 -0.017884844 176.49248 
13.67 -1.2763825 -165.07853 -800 0 -27.443243 -75.470209 -800 0 
	-800 0 -0.8505878 179.45301 -800 0 -29.003744 -89.496366 
	-27.443243 -75.470209 -800 0 -0.023612956 179.55704 -800 0 
	-800 0 -29.003744 -89.496366 -800 0 -0.017865381 176.4841 
13.68 -1.2669134 -165.74979 -800 0 -27.568293 -75.854163 -800 0 
	-800 0 -0.85065353 179.05585 -800 0 -29.034395 -89.701935 
	-27.568293 -75.854163 -800 0 -0.023262726 179.55107 -800 0 
	-800 0 -29.034395 -89.701935 -800 0 -0.017845596 176.47571 
13.69 -1.2575957 -166.41327 -800 0 -27.692385 -76.236091 -800 0 
	-800 0 -0.85070824 178.65947 -800 0 -29.064861 -89.907395 
	-27.692385 -76.236091 -800 0 -0.022921883 179.54517 -800 0 
	-800 0 -29.064861 -89.907395 -800 0 -0.017825483 176.46732 
13.7 -1.2484273 -167.06919 -800 0 -27.815531 -76.616082 -800 0 
	-800 0 -0.85075043 178.26387 -800 0 -29.095152 -90.112842 
	-27.815531 -76.616082 -800 0 -0.02259004 179.53935 -800 0 
	-800 0 -29.095152 -90.112842 -800 0 -0.017805034 176.45892 
13.71 -1.2411846 -167.71128 -800 0 -27.935764 -76.964627 -800 0 
	-800 0 -0.85084693 177.86678 -800 0 -29.125782 -90.313824 
	-27.935764 -76.964627 -800 0 -0.022297348 179.53365 -800 0 
	-800 0 -29.125782 -90.313824 -800 0 -0.017792218 176.45049 
13.72 -1.2340295 -168.34659 -800 0 -28.055112 -77.31168 -800 0 
	-800 0 -0.85092656 177.47049 -800 0 -29.15625 -90.514901 
	-28.055112 -77.31168 -800 0 -0.022012026 179.52802 -800 0 
	-800 0 -29.15625 -90.514901 -800 0 -0.017778995 176.44206 
13.73 -1.2269624 -168.9753 -800 0 -28.173588 -77.65731 -800 0 
	-800 0 -0.85098944 177.07499 -800 0 -29.186559 -90.716083 
	-28.173588 -77.65731 -800 0 -0.021733779 179.52246 -800 0 
	-800 0 -29.186559 -90.716083 -800 0 -0.017765364 176.43362 
13.74 -1.2199834 -169.5976 -800 0 -28.291205 -78.001583 -800 0 
	-800 0 -0.85103595 176.68029 -800 0 -29.21671 -90.917376 
	-28.291205 -78.001583 -800 0 -0.021462327 179.51697 -800 0 
	-800 0 -29.21671 -90.917376 -800 0 -0.017751325 176.42518 
13.75 -1.2130927 -170.21368 -800 0 -28.407976 -78.344561 -800 0 
	-800 0 -0.85106659 176.28636 -800 0 -29.246706 -91.118781 
	-28.407976 -78.344561 -800 0 -0.021197402 179.51154 -800 0 
	-800 0 -29.246706 -91.118781 -800 0 -0.01773688 176.41673 
13.76 -1.2062905 -170.82371 -800 0 -28.523914 -78.686306 -800 0 
	-800 0 -0.85108192 175.89321 -800 0 -29.276548 -91.320297 
	-28.523914 -78.686306 -800 0 -0.020938748 179.50617 -800 0 
	-800 0 -29.276548 -91.320297 -800 0 -0.01772203 176.40828 
13.77 -1.1995766 -171.42786 -800 0 -28.639029 -79.026877 -800 0 
	-800 0 -0.85108258 175.50083 -800 0 -29.306237 -91.521921 
	-28.639029 -79.026877 -800 0 -0.020686122 179.50087 -800 0 
	-800 0 -29.306237 -91.521921 -800 0 -0.017706778 176.39982 
13.78 -1.1929512 -172.02628 -800 0 -28.753335 -79.36633 -800 0 
	-800 0 -0.85106921 175.1092 -800 0 -29.335773 -91.723652 
	-28.753335 -79.36633 -800 0 -0.020439289 179.49563 -800 0 
	-800 0 -29.335773 -91.723652 -800 0 -0.017691126 176.39136 
13.79 -1.1864141 -172.61915 -800 0 -28.866841 -79.704719 -800 0 
	-800 0 -0.85104249 174.71832 -800 0 -29.365159 -91.925485 
	-28.866841 -79.704719 -800 0 -0.020198025 179.49044 -800 0 
	-800 0 -29.365159 -91.925485 -800 0 -0.017675076 176.38289 
13.8 -1.1799651 -173.20659 -800 0 -28.979561 -80.042096 -800 0 
	-800 0 -0.85100308 174.32819 -800 0 -29.394393 -92.127418 
	-28.979561 -80.042096 -800 0 -0.019962116 179.48532 -800 0 
	-800 0 -29.394393 -92.127418 -800 0 -0.017658631 176.37441 
13.81 -1.1749792 -173.78363 -800 0 -29.089386 -80.353469 -800 0 
	-800 0 -0.85135421 173.93844 -800 0 -29.423254 -92.320526 
	-29.089386 -80.353469 -800 0 -0.019752764 179.48032 -800 0 
	-800 0 -29.423254 -92.320526 -800 0 -0.017653779 176.36592 
13.82 -1.1700428 -174.35579 -800 0 -29.198481 -80.664033 -800 0 
	-800 0 -0.85168875 173.5494 -800 0 -29.451973 -92.513769 
	-29.198481 -80.664033 -800 0 -0.019547849 179.47538 -800 0 
	-800 0 -29.451973 -92.513769 -800 0 -0.017648434 176.35741 
13.83 -1.1651568 -174.92318 -800 0 -29.306857 -80.97383 -800 0 
	-800 0 -0.85200742 173.16106 -800 0 -29.480549 -92.707144 
	-29.306857 -80.97383 -800 0 -0.019347205 179.4705 -800 0 
	-800 0 -29.480549 -92.707144 -800 0 -0.017642598 176.34891 
13.84 -1.1603221 -175.48594 -800 0 -29.414524 -81.2829 -800 0 
	-800 0 -0.85231095 172.77342 -800 0 -29.508984 -92.900646 
	-29.414524 -81.2829 -800 0 -0.019150673 179.46566 -800 0 
	-800 0 -29.508984 -92.900646 -800 0 -0.017636276 176.34039 
13.85 -1.1555394 -176.04418 -800 0 -29.521491 -81.591279 -800 0 
	-800 0 -0.85260004 172.38648 -800 0 -29.537278 -93.094271 
	-29.521491 -81.591279 -800 0 -0.018958099 179.46087 -800 0 
	-800 0 -29.537278 -93.094271 -800 0 -0.01762947 176.33187 
13.86 -1.1508094 -176.59801 -800 0 -29.627769 -81.899006 -800 0 
	-800 0 -0.85287542 172.00023 -800 0 -29.565431 -93.288015 
	-29.627769 -81.899006 -800 0 -0.018769338 179.45613 -800 0 
	-800 0 -29.565431 -93.288015 -800 0 -0.017622185 176.32334 
13.87 -1.1461326 -177.14755 -800 0 -29.733365 -82.206115 -800 0 
	-800 0 -0.85313776 171.61465 -800 0 -29.593443 -93.481873 
	-29.733365 -82.206115 -800 0 -0.018584249 179.45144 -800 0 
	-800 0 -29.593443 -93.481873 -800 0 -0.017614423 176.31481 
13.88 -1.1415098 -177.69289 -800 0 -29.83829 -82.512641 -800 0 
	-800 0 -0.85338777 171.22975 -800 0 -29.621315 -93.67584 
	-29.83829 -82.512641 -800 0 -0.018402697 179.4468 -800 0 
	-800 0 -29.621315 -93.67584 -800 0 -0.017606188 176.30626 
13.89 -1.1369413 -178.23414 -800 0 -29.942553 -82.818615 -800 0 
	-800 0 -0.85362613 170.84551 -800 0 -29.649047 -93.869913 
	-29.942553 -82.818615 -800 0 -0.018224552 179.4422 -800 0 
	-800 0 -29.649047 -93.869913 -800 0 -0.017597483 176.29772 
13.9 -1.1324276 -178.77141 -800 0 -30.046161 -83.12407 -800 0 
	-800 0 -0.85385349 170.46193 -800 0 -29.676639 -94.064087 
	-30.046161 -83.12407 -800 0 -0.01804969 179.43764 -800 0 
	-800 0 -29.676639 -94.064087 -800 0 -0.017588311 176.28916 
13.91 -1.1290575 -179.30074 -800 0 -30.146964 -83.407087 -800 0 
	-800 0 -0.85456591 170.0784 -800 0 -29.704309 -94.25616 
	-30.146964 -83.407087 -800 0 -0.017893145 179.43322 -800 0 
	-800 0 -29.704309 -94.25616 -800 0 -0.017587922 176.28062 
13.92 -1.1257164 -179.82645 -800 0 -30.247167 -83.689634 -800 0 
	-800 0 -0.85526367 169.69551 -800 0 -29.731842 -94.448377 
	-30.247167 -83.689634 -800 0 -0.017739373 179.42884 -800 0 
	-800 0 -29.731842 -94.448377 -800 0 -0.017587053 176.27207 
13.93 -1.1224053 179.65136 -800 0 -30.346779 -83.971738 -800 0 
	-800 0 -0.85594744 169.31326 -800 0 -29.759238 -94.640734 
	-30.346779 -83.971738 -800 0 -0.017588274 179.4245 -800 0 
	-800 0 -29.759238 -94.640734 -800 0 -0.017585709 176.26351 
13.94 -1.119125 179.13262 -800 0 -30.445807 -84.253422 -800 0 
	-800 0 -0.8566179 168.93163 -800 0 -29.786496 -94.833225 
	-30.445807 -84.253422 -800 0 -0.017439752 179.4202 -800 0 
	-800 0 -29.786496 -94.833225 -800 0 -0.01758389 176.25495 
13.95 -1.1158765 178.61724 -800 0 -30.54426 -84.534709 -800 0 
	-800 0 -0.85727571 168.55062 -800 0 -29.813618 -95.025846 
	-30.54426 -84.534709 -800 0 -0.017293717 179.41593 -800 0 
	-800 0 -29.813618 -95.025846 -800 0 -0.017581601 176.24638 
13.96 -1.1126605 178.10516 -800 0 -30.642145 -84.815622 -800 0 
	-800 0 -0.85792149 168.17022 -800 0 -29.840603 -95.218593 
	-30.642145 -84.815622 -800 0 -0.01715008 179.4117 -800 0 
	-800 0 -29.840603 -95.218593 -800 0 -0.017578844 176.23779 
13.97 -1.1094778 177.5963 -800 0 -30.739469 -85.096181 -800 0 
	-800 0 -0.85855591 167.79044 -800 0 -29.867451 -95.411461 
	-30.739469 -85.096181 -800 0 -0.017008756 179.40751 -800 0 
	-800 0 -29.867451 -95.411461 -800 0 -0.017575621 176.22921 
13.98 -1.1063292 177.09058 -800 0 -30.83624 -85.376408 -800 0 
	-800 0 -0.85917957 167.41125 -800 0 -29.894163 -95.604444 
	-30.83624 -85.376408 -800 0 -0.016869664 179.40335 -800 0 
	-800 0 -29.894163 -95.604444 -800 0 -0.017571936 176.22061 
13.99 -1.1032153 176.58794 -800 0 -30.932465 -85.656321 -800 0 
	-800 0 -0.85979311 167.03267 -800 0 -29.920739 -95.797538 
	-30.932465 -85.656321 -800 0 -0.016732723 179.39922 -800 0 
	-800 0 -29.920739 -95.797538 -800 0 -0.017567791 176.21201 
14 -1.1001368 176.08831 -800 0 -31.028152 -85.93594 -800 0 
	-800 0 -0.86039713 166.65468 -800 0 -29.947179 -95.990738 
	-31.028152 -85.93594 -800 0 -0.01659786 179.39513 -800 0 
	-800 0 -29.947179 -95.990738 -800 0 -0.017563189 176.20339 
14.01 -1.0979653 175.59513 -800 0 -31.121136 -86.196302 -800 0 
	-800 0 -0.86113447 166.27955 -800 0 -29.97284 -96.18418 
	-31.121136 -86.196302 -800 0 -0.016476639 179.39116 -800 0 
	-800 0 -29.97284 -96.18418 -800 0 -0.017576401 176.19479 
14.02 -1.0958119 175.10468 -800 0 -31.213627 -86.456354 -800 0 
	-800 0 -0.86186433 165.90497 -800 0 -29.99837 -96.377763 
	-31.213627 -86.456354 -800 0 -0.016357194 179.38722 -800 0 
	-800 0 -29.99837 -96.377763 -800 0 -0.017589114 176.18618 
14.03 -1.0936775 174.61691 -800 0 -31.305631 -86.71611 -800 0 
	-800 0 -0.86258726 165.53094 -800 0 -30.023768 -96.571484 
	-31.305631 -86.71611 -800 0 -0.016239464 179.38331 -800 0 
	-800 0 -30.023768 -96.571484 -800 0 -0.01760133 176.17756 
14.04 -1.0915631 174.13175 -800 0 -31.397155 -86.975583 -800 0 
	-800 0 -0.8633038 165.15745 -800 0 -30.049035 -96.765337 
	-31.397155 -86.975583 -800 0 -0.016123388 179.37943 -800 0 
	-800 0 -30.049035 -96.765337 -800 0 -0.017613051 176.16893 
14.05 -1.0894693 173.64915 -800 0 -31.488206 -87.234787 -800 0 
	-800 0 -0.86401448 164.78451 -800 0 -30.074171 -96.959317 
	-31.488206 -87.234787 -800 0 -0.01600891 179.37557 -800 0 
	-800 0 -30.074171 -96.959317 -800 0 -0.017624279 176.16029 
14.06 -1.0873969 173.16906 -800 0 -31.57879 -87.493733 -800 0 
	-800 0 -0.86471983 164.4121 -800 0 -30.099176 -97.153419 
	-31.57879 -87.493733 -800 0 -0.015895976 179.37174 -800 0 
	-800 0 -30.099176 -97.153419 -800 0 -0.017635016 176.15165 
14.07 -1.0853468 172.69142 -800 0 -31.668915 -87.752433 -800 0 
	-800 0 -0.86542036 164.04023 -800 0 -30.12405 -97.347638 
	-31.668915 -87.752433 -800 0 -0.015784532 179.36794 -800 0 
	-800 0 -30.12405 -97.347638 -800 0 -0.017645265 176.14299 
14.08 -1.0833197 172.21619 -800 0 -31.758586 -88.010896 -800 0 
	-800 0 -0.86611657 163.66887 -800 0 -30.148793 -97.54197 
	-31.758586 -88.010896 -800 0 -0.015674527 179.36417 -800 0 
	-800 0 -30.148793 -97.54197 -800 0 -0.017655027 176.13432 
14.09 -1.0813161 171.74332 -800 0 -31.847812 -88.269132 -800 0 
	-800 0 -0.86680896 163.29805 -800 0 -30.173405 -97.736409 
	-31.847812 -88.269132 -800 0 -0.015565913 179.36042 -800 0 
	-800 0 -30.173405 -97.736409 -800 0 -0.017664305 176.12564 
14.1 -1.0793368 171.27276 -800 0 -31.936598 -88.52715 -800 0 
	-800 0 -0.86749801 162.92773 -800 0 -30.197886 -97.930949 
	-31.936598 -88.52715 -800 0 -0.015458642 179.3567 -800 0 
	-800 0 -30.197886 -97.930949 -800 0 -0.017673101 176.11696 
14.11 -1.0781091 170.80783 -800 0 -32.02265 -88.768402 -800 0 
	-800 0 -0.86833864 162.55872 -800 0 -30.221321 -98.114236 
	-32.02265 -88.768402 -800 0 -0.015362217 179.35307 -800 0 
	-800 0 -30.221321 -98.114236 -800 0 -0.017682257 176.10829 
14.12 -1.0768939 170.34499 -800 0 -32.108298 -89.009386 -800 0 
	-800 0 -0.86917453 162.19019 -800 0 -30.244639 -98.297585 
	-32.108298 -89.009386 -800 0 -0.015266946 179.34947 -800 0 
	-800 0 -30.244639 -98.297585 -800 0 -0.017690938 176.09961 
14.13 -1.0756921 169.8842 -800 0 -32.193549 -89.250107 -800 0 
	-800 0 -0.87000613 161.82215 -800 0 -30.26784 -98.48099 
	-32.193549 -89.250107 -800 0 -0.015172793 179.34589 -800 0 
	-800 0 -30.26784 -98.48099 -800 0 -0.017699144 176.09092 
14.14 -1.0745045 169.42541 -800 0 -32.278409 -89.490568 -800 0 
	-800 0 -0.87083391 161.45458 -800 0 -30.290924 -98.664447 
	-32.278409 -89.490568 -800 0 -0.01507972 179.34234 -800 0 
	-800 0 -30.290924 -98.664447 -800 0 -0.017706879 176.08223 
14.15 -1.0733317 168.9686 -800 0 -32.362886 -89.730774 -800 0 
	-800 0 -0.87165832 161.0875 -800 0 -30.313891 -98.847953 
	-32.362886 -89.730774 -800 0 -0.014987693 179.3388 -800 0 
	-800 0 -30.313891 -98.847953 -800 0 -0.017714145 176.07352 
14.16 -1.0721745 168.51371 -800 0 -32.446987 -89.970724 -800 0 
	-800 0 -0.87247982 160.72089 -800 0 -30.336742 -99.031501 
	-32.446987 -89.970724 -800 0 -0.014896678 179.33529 -800 0 
	-800 0 -30.336742 -99.031501 -800 0 -0.017720942 176.0648 
14.17 -1.0710336 168.06072 -800 0 -32.530718 -90.21042 -800 0 
	-800 0 -0.87329883 160.35474 -800 0 -30.359476 -99.215088 
	-32.530718 -90.21042 -800 0 -0.014806645 179.33179 -800 0 
	-800 0 -30.359476 -99.215088 -800 0 -0.017727274 176.05607 
14.18 -1.0699096 167.60959 -800 0 -32.614087 -90.449862 -800 0 
	-800 0 -0.8741158 159.98906 -800 0 -30.382094 -99.398709 
	-32.614087 -90.449862 -800 0 -0.014717563 179.32832 -800 0 
	-800 0 -30.382094 -99.398709 -800 0 -0.017733141 176.04733 
14.19 -1.0688031 167.16027 -800 0 -32.697101 -90.689047 -800 0 
	-800 0 -0.87493113 159.62384 -800 0 -30.404596 -99.582361 
	-32.697101 -90.689047 -800 0 -0.014629402 179.32486 -800 0 
	-800 0 -30.404596 -99.582361 -800 0 -0.017738546 176.03858 
14.2 -1.0677149 166.71274 -800 0 -32.779768 -90.927973 -800 0 
	-800 0 -0.87574526 159.25908 -800 0 -30.426981 -99.766037 
	-32.779768 -90.927973 -800 0 -0.014542137 179.32142 -800 0 
	-800 0 -30.426981 -99.766037 -800 0 -0.017743491 176.02982 
14.21 -1.0672704 166.27071 -800 0 -32.859256 -91.152183 -800 0 
	-800 0 -0.8770065 158.89355 -800 0 -30.448187 -99.949787 
	-32.859256 -91.152183 -800 0 -0.014462644 179.31807 -800 0 
	-800 0 -30.448187 -99.949787 -800 0 -0.017740281 176.02093 
14.22 -1.0668367 165.83027 -800 0 -32.938424 -91.376019 -800 0 
	-800 0 -0.87826314 158.52846 -800 0 -30.469266 -100.1335 
	-32.938424 -91.376019 -800 0 -0.01438395 179.31473 -800 0 
	-800 0 -30.469266 -100.1335 -800 0 -0.017736467 176.01203 
14.23 -1.0664144 165.39139 -800 0 -33.017281 -91.599471 -800 0 
	-800 0 -0.87951558 158.16381 -800 0 -30.490217 -100.31717 
	-33.017281 -91.599471 -800 0 -0.014306036 179.3114 -800 0 
	-800 0 -30.490217 -100.31717 -800 0 -0.017732053 176.00312 
14.24 -1.0660041 164.95404 -800 0 -33.095836 -91.82253 -800 0 
	-800 0 -0.88076423 157.79958 -800 0 -30.511041 -100.50078 
	-33.095836 -91.82253 -800 0 -0.014228882 179.3081 -800 0 
	-800 0 -30.511041 -100.50078 -800 0 -0.017727041 175.99421 
14.25 -1.0656065 164.51819 -800 0 -33.174098 -92.045183 -800 0 
	-800 0 -0.88200946 157.43579 -800 0 -30.531738 -100.68435 
	-33.174098 -92.045183 -800 0 -0.014152472 179.30481 -800 0 
	-800 0 -30.531738 -100.68435 -800 0 -0.017721435 175.98528 
14.26 -1.0652222 164.08381 -800 0 -33.252075 -92.267414 -800 0 
	-800 0 -0.88325167 157.07242 -800 0 -30.55231 -100.86785 
	-33.252075 -92.267414 -800 0 -0.014076791 179.30153 -800 0 
	-800 0 -30.55231 -100.86785 -800 0 -0.017715237 175.97634 
14.27 -1.0648519 163.65087 -800 0 -33.329778 -92.489207 -800 0 
	-800 0 -0.88449122 156.70947 -800 0 -30.572755 -101.05128 
	-33.329778 -92.489207 -800 0 -0.014001825 179.29827 -800 0 
	-800 0 -30.572755 -101.05128 -800 0 -0.017708451 175.96739 
14.28 -1.0644961 163.21935 -800 0 -33.407217 -92.710541 -800 0 
	-800 0 -0.8857285 156.34694 -800 0 -30.593075 -101.23465 
	-33.407217 -92.710541 -800 0 -0.013927564 179.29502 -800 0 
	-800 0 -30.593075 -101.23465 -800 0 -0.017701079 175.95843 
14.29 -1.0641556 162.78921 -800 0 -33.484403 -92.931394 -800 0 
	-800 0 -0.88696386 155.98483 -800 0 -30.613269 -101.41793 
	-33.484403 -92.931394 -800 0 -0.013853997 179.29179 -800 0 
	-800 0 -30.613269 -101.41793 -800 0 -0.017693125 175.94946 
14.3 -1.0638309 162.36043 -800 0 -33.561347 -93.15174 -800 0 
	-800 0 -0.88819766 155.62313 -800 0 -30.633339 -101.60114 
	-33.561347 -93.15174 -800 0 -0.013781118 179.28857 -800 0 
	-800 0 -30.633339 -101.60114 -800 0 -0.01768459 175.94048 
14.31 -1.0637202 161.93848 -800 0 -33.634032 -93.375235 -800 0 
	-800 0 -0.88939877 155.26304 -800 0 -30.654481 -101.7799 
	-33.634032 -93.375235 -800 0 -0.013714297 179.28535 -800 0 
	-800 0 -30.654481 -101.7799 -800 0 -0.017702386 175.93158 
14.32 -1.0636332 161.5177 -800 0 -33.706458 -93.59809 -800 0 
	-800 0 -0.89059953 154.90335 -800 0 -30.675512 -101.95871 
	-33.706458 -93.59809 -800 0 -0.013648089 179.28214 -800 0 
	-800 0 -30.675512 -101.95871 -800 0 -0.017719677 175.92267 
14.33 -1.0635706 161.09806 -800 0 -33.77864 -93.820263 -800 0 
	-800 0 -0.8918003 154.54407 -800 0 -30.696431 -102.13754 
	-33.77864 -93.820263 -800 0 -0.013582497 179.27894 -800 0 
	-800 0 -30.696431 -102.13754 -800 0 -0.017736465 175.91375 
14.34 -1.0635328 160.67953 -800 0 -33.85059 -94.041705 -800 0 
	-800 0 -0.89300142 154.18519 -800 0 -30.717239 -102.31641 
	-33.85059 -94.041705 -800 0 -0.013517528 179.27576 -800 0 
	-800 0 -30.717239 -102.31641 -800 0 -0.017752753 175.90481 
14.35 -1.0635203 160.26209 -800 0 -33.922325 -94.262364 -800 0 
	-800 0 -0.89420325 153.82671 -800 0 -30.737935 -102.49529 
	-33.922325 -94.262364 -800 0 -0.013453191 179.27259 -800 0 
	-800 0 -30.737935 -102.49529 -800 0 -0.017768541 175.89587 
14.36 -1.0635336 159.84572 -800 0 -33.993861 -94.482177 -800 0 
	-800 0 -0.89540612 153.46861 -800 0 -30.758521 -102.6742 
	-33.993861 -94.482177 -800 0 -0.013389501 179.26943 -800 0 
	-800 0 -30.758521 -102.6742 -800 0 -0.017783831 175.88691 
14.37 -1.0635734 159.43038 -800 0 -34.065217 -94.701075 -800 0 
	-800 0 -0.89661038 153.11092 -800 0 -30.778995 -102.85312 
	-34.065217 -94.701075 -800 0 -0.013326476 179.26628 -800 0 
	-800 0 -30.778995 -102.85312 -800 0 -0.017798624 175.87794 
14.38 -1.0636402 159.01605 -800 0 -34.13641 -94.918979 -800 0 
	-800 0 -0.89781634 152.7536 -800 0 -30.799358 -103.03204 
	-34.13641 -94.918979 -800 0 -0.013264139 179.26314 -800 0 
	-800 0 -30.799358 -103.03204 -800 0 -0.017812923 175.86896 
14.39 -1.0637349 158.60269 -800 0 -34.207463 -95.135799 -800 0 
	-800 0 -0.89902435 152.39668 -800 0 -30.81961 -103.21097 
	-34.207463 -95.135799 -800 0 -0.013202523 179.26 -800 0 
	-800 0 -30.81961 -103.21097 -800 0 -0.017826728 175.85996 
14.4 -1.0638581 158.19029 -800 0 -34.278397 -95.351432 -800 0 
	-800 0 -0.90023471 152.04014 -800 0 -30.839752 -103.3899 
	-34.278397 -95.351432 -800 0 -0.013141663 179.25688 -800 0 
	-800 0 -30.839752 -103.3899 -800 0 -0.017840041 175.85095 
14.41 -1.0635362 157.77691 -800 0 -34.353689 -95.585124 -800 0 
	-800 0 -0.90184157 151.68463 -800 0 -30.859095 -103.564 
	-34.353689 -95.585124 -800 0 -0.013116114 179.25377 -800 0 
	-800 0 -30.859095 -103.564 -800 0 -0.017858691 175.84188 
14.42 -1.0632551 157.36456 -800 0 -34.428915 -95.818388 -800 0 
	-800 0 -0.90344846 151.32948 -800 0 -30.878328 -103.73809 
	-34.428915 -95.818388 -800 0 -0.01309092 179.25066 -800 0 
	-800 0 -30.878328 -103.73809 -800 0 -0.017876751 175.83279 
14.43 -1.0630162 156.9532 -800 0 -34.504104 -96.051077 -800 0 
	-800 0 -0.90505566 150.97469 -800 0 -30.897452 -103.91218 
	-34.504104 -96.051077 -800 0 -0.013066149 179.24755 -800 0 
	-800 0 -30.897452 -103.91218 -800 0 -0.017894222 175.82369 
14.44 -1.0628209 156.5428 -800 0 -34.579288 -96.283018 -800 0 
	-800 0 -0.90666351 150.62025 -800 0 -30.916466 -104.08625 
	-34.579288 -96.283018 -800 0 -0.013041883 179.24445 -800 0 
	-800 0 -30.916466 -104.08625 -800 0 -0.017911106 175.81458 
14.45 -1.062671 156.13332 -800 0 -34.654501 -96.514012 -800 0 
	-800 0 -0.9082723 150.26615 -800 0 -30.93537 -104.26031 
	-34.654501 -96.514012 -800 0 -0.013018217 179.24136 -800 0 
	-800 0 -30.93537 -104.26031 -800 0 -0.017927403 175.80546 
14.46 -1.0625683 155.72473 -800 0 -34.72978 -96.743825 -800 0 
	-800 0 -0.90988232 149.9124 -800 0 -30.954164 -104.43435 
	-34.72978 -96.743825 -800 0 -0.012995265 179.23826 -800 0 
	-800 0 -30.954164 -104.43435 -800 0 -0.017943117 175.79632 
14.47 -1.0625148 155.31699 -800 0 -34.805169 -96.97218 -800 0 
	-800 0 -0.91149388 149.559 -800 0 -30.972849 -104.60837 
	-34.805169 -96.97218 -800 0 -0.012973158 179.23517 -800 0 
	-800 0 -30.972849 -104.60837 -800 0 -0.017958247 175.78717 
14.48 -1.0625132 154.91005 -800 0 -34.880714 -97.198752 -800 0 
	-800 0 -0.91310727 149.20595 -800 0 -30.991424 -104.78235 
	-34.880714 -97.198752 -800 0 -0.012952051 179.23208 -800 0 
	-800 0 -30.991424 -104.78235 -800 0 -0.017972796 175.778 
14.49 -1.062566 154.50386 -800 0 -34.956467 -97.423156 -800 0 
	-800 0 -0.91472277 148.85323 -800 0 -31.009891 -104.9563 
	-34.956467 -97.423156 -800 0 -0.012932131 179.22899 -800 0 
	-800 0 -31.009891 -104.9563 -800 0 -0.017986765 175.76882 
14.5 -1.0626768 154.09837 -800 0 -35.032486 -97.644929 -800 0 
	-800 0 -0.91634067 148.50085 -800 0 -31.028248 -105.1302 
	-35.032486 -97.644929 -800 0 -0.012913617 179.2259 -800 0 
	-800 0 -31.028248 -105.1302 -800 0 -0.018000156 175.75963 
14.51 -1.0637407 153.69208 -800 0 -35.109544 -97.810339 -800 0 
	-800 0 -0.91822485 148.14868 -800 0 -31.046745 -105.30404 
	-35.109544 -97.810339 -800 0 -0.012905016 179.22299 -800 0 
	-800 0 -31.046745 -105.30404 -800 0 -0.018021518 175.75042 
14.52 -1.0648393 153.28635 -800 0 -35.187146 -97.97159 -800 0 
	-800 0 -0.92010995 147.79684 -800 0 -31.065133 -105.47786 
	-35.187146 -97.97159 -800 0 -0.012898505 179.22008 -800 0 
	-800 0 -31.065133 -105.47786 -800 0 -0.018042286 175.7412 
14.53 -1.0659782 152.8811 -800 0 -35.265376 -98.127874 -800 0 
	-800 0 -0.92199627 147.44533 -800 0 -31.08341 -105.65168 
	-35.265376 -98.127874 -800 0 -0.01289447 179.21716 -800 0 
	-800 0 -31.08341 -105.65168 -800 0 -0.018062461 175.73196 
14.54 -1.0671641 152.47626 -800 0 -35.344322 -98.278203 -800 0 
	-800 0 -0.92388408 147.09414 -800 0 -31.101577 -105.82547 
	-35.344322 -98.278203 -800 0 -0.01289338 179.21423 -800 0 
	-800 0 -31.101577 -105.82547 -800 0 -0.018082044 175.72271 
14.55 -1.0684056 152.07174 -800 0 -35.42408 -98.42136 -800 0 
	-800 0 -0.92577365 146.74327 -800 0 -31.119634 -105.99924 
	-35.42408 -98.42136 -800 0 -0.012895806 179.21129 -800 0 
	-800 0 -31.119634 -105.99924 -800 0 -0.018101036 175.71344 
14.56 -1.069713 151.66743 -800 0 -35.504756 -98.555845 -800 0 
	-800 0 -0.92766527 146.39273 -800 0 -31.137581 -106.17298 
	-35.504756 -98.555845 -800 0 -0.012902441 179.20834 -800 0 
	-800 0 -31.137581 -106.17298 -800 0 -0.018119438 175.70416 
14.57 -1.0710999 151.2632 -800 0 -35.586456 -98.679788 -800 0 
	-800 0 -0.92955919 146.04251 -800 0 -31.155417 -106.34669 
	-35.586456 -98.679788 -800 0 -0.012914136 179.20538 -800 0 
	-800 0 -31.155417 -106.34669 -800 0 -0.018137252 175.69486 
14.58 -1.072584 150.85891 -800 0 -35.669288 -98.790851 -800 0 
	-800 0 -0.93145568 145.69261 -800 0 -31.173144 -106.52036 
	-35.669288 -98.790851 -800 0 -0.012931932 179.20239 -800 0 
	-800 0 -31.173144 -106.52036 -800 0 -0.018154477 175.68555 
14.59 -1.0741892 150.45436 -800 0 -35.75335 -98.886091 -800 0 
	-800 0 -0.933355 145.34302 -800 0 -31.19076 -106.69398 
	-35.75335 -98.886091 -800 0 -0.012957112 179.1994 -800 0 
	-800 0 -31.19076 -106.69398 -800 0 -0.018171116 175.67623 
14.6 -1.075948 150.04935 -800 0 -35.838716 -98.961782 -800 0 
	-800 0 -0.9352574 144.99375 -800 0 -31.208267 -106.86756 
	-35.838716 -98.961782 -800 0 -0.012991252 179.19638 -800 0 
	-800 0 -31.208267 -106.86756 -800 0 -0.018187169 175.66689 
14.61 -1.0782643 149.64625 -800 0 -35.921096 -98.998102 -800 0 
	-800 0 -0.93739112 144.64482 -800 0 -31.225541 -107.03899 
	-35.921096 -98.998102 -800 0 -0.013035956 179.19342 -800 0 
	-800 0 -31.225541 -107.03899 -800 0 -0.018210895 175.65754 
14.62 -1.0808412 149.24199 -800 0 -36.00474 -99.003712 -800 0 
	-800 0 -0.93952657 144.29618 -800 0 -31.242707 -107.21038 
	-36.00474 -99.003712 -800 0 -0.013094105 179.19044 -800 0 
	-800 0 -31.242707 -107.21038 -800 0 -0.018234017 175.64816 
14.63 -1.0837735 148.83621 -800 0 -36.089419 -98.970959 -800 0 
	-800 0 -0.94166401 143.94785 -800 0 -31.259765 -107.38174 
	-36.089419 -98.970959 -800 0 -0.013168578 179.18746 -800 0 
	-800 0 -31.259765 -107.38174 -800 0 -0.018256535 175.63878 
14.64 -1.0872006 148.42856 -800 0 -36.174626 -98.890219 -800 0 
	-800 0 -0.94380371 143.59983 -800 0 -31.276713 -107.55306 
	-36.174626 -98.890219 -800 0 -0.013262797 179.1845 -800 0 
	-800 0 -31.276713 -107.55306 -800 0 -0.018278451 175.62937 
14.65 -1.0913266 148.01877 -800 0 -36.259393 -98.749618 -800 0 
	-800 0 -0.94594589 143.2521 -800 0 -31.293553 -107.72432 
	-36.259393 -98.749618 -800 0 -0.013380693 179.18156 -800 0 
	-800 0 -31.293553 -107.72432 -800 0 -0.018299764 175.61995 
14.66 -1.0964455 147.60687 -800 0 -36.341996 -98.535078 -800 0 
	-800 0 -0.94809081 142.90467 -800 0 -31.310285 -107.89553 
	-36.341996 -98.535078 -800 0 -0.013526537 179.17868 -800 0 
	-800 0 -31.310285 -107.89553 -800 0 -0.018320476 175.61052 
14.67 -1.1029627 147.19355 -800 0 -36.419531 -98.231222 -800 0 
	-800 0 -0.95023871 142.55755 -800 0 -31.326908 -108.06668 
	-36.419531 -98.231222 -800 0 -0.013704487 179.17592 -800 0 
	-800 0 -31.326908 -108.06668 -800 0 -0.018340586 175.60107 
14.68 -1.1113893 146.78088 -800 0 -36.487337 -97.824201 -800 0 
	-800 0 -0.95238982 142.21072 -800 0 -31.343423 -108.23776 
	-36.487337 -97.824201 -800 0 -0.013917651 179.17334 -800 0 
	-800 0 -31.343423 -108.23776 -800 0 -0.018360097 175.59161 
14.69 -1.1222603 146.37323 -800 0 -36.53841 -97.308228 -800 0 
	-800 0 -0.95454438 141.86418 -800 0 -31.359829 -108.40878 
	-36.53841 -97.308228 -800 0 -0.014166375 179.17104 -800 0 
	-800 0 -31.359829 -108.40878 -800 0 -0.018379007 175.58213 
14.7 -1.1359065 145.9782 -800 0 -36.563283 -96.697743 -800 0 
	-800 0 -0.95670262 141.51794 -800 0 -31.376127 -108.57971 
	-36.563283 -96.697743 -800 0 -0.014445394 179.16914 -800 0 
	-800 0 -31.376127 -108.57971 -800 0 -0.018397317 175.57264 
14.71 -1.1522818 145.60778 -800 0 -36.549033 -96.038943 -800 0 
	-800 0 -0.95894179 141.17246 -800 0 -31.391348 -108.74628 
	-36.549033 -96.038943 -800 0 -0.014745312 179.16783 -800 0 
	-800 0 -31.391348 -108.74628 -800 0 -0.018425646 175.56314 
14.72 -1.1698068 145.27159 -800 0 -36.490367 -95.439791 -800 0 
	-800 0 -0.96118443 140.82727 -800 0 -31.406468 -108.91275 
	-36.490367 -95.439791 -800 0 -0.01503183 179.16719 -800 0 
	-800 0 -31.406468 -108.91275 -800 0 -0.018453379 175.55363 
14.73 -1.1859369 144.97541 -800 0 -36.388928 -95.042418 -800 0 
	-800 0 -0.96343075 140.48235 -800 0 -31.421485 -109.07913 
	-36.388928 -95.042418 -800 0 -0.015261735 179.16723 -800 0 
	-800 0 -31.421485 -109.07913 -800 0 -0.018480518 175.5441 
14.74 -1.1976391 144.71372 -800 0 -36.260068 -94.978326 -800 0 
	-800 0 -0.96568096 140.13772 -800 0 -31.436399 -109.2454 
	-36.260068 -94.978326 -800 0 -0.015386828 179.16782 -800 0 
	-800 0 -31.436399 -109.2454 -800 0 -0.018507061 175.53456 
14.75 -1.2027904 144.469 -800 0 -36.129499 -95.301135 -800 0 
	-800 0 -0.96793529 139.79337 -800 0 -31.451212 -109.41156 
	-36.129499 -95.301135 -800 0 -0.015373929 179.16863 -800 0 
	-800 0 -31.451212 -109.41156 -800 0 -0.018533008 175.52499 
14.76 -1.2012642 144.21901 -800 0 -36.02243 -95.958197 -800 0 
	-800 0 -0.97019393 139.44929 -800 0 -31.465922 -109.57761 
	-36.02243 -95.958197 -800 0 -0.015222873 179.16926 -800 0 
	-800 0 -31.465922 -109.57761 -800 0 -0.01855836 175.51542 
14.77 -1.1947569 143.94684 -800 0 -35.953656 -96.826451 -800 0 
	-800 0 -0.97245709 139.1055 -800 0 -31.48053 -109.74354 
	-35.953656 -96.826451 -800 0 -0.014966152 179.16937 -800 0 
	-800 0 -31.48053 -109.74354 -800 0 -0.018583117 175.50582 
14.78 -1.1856516 143.64591 -800 0 -35.925479 -97.77538 -800 0 
	-800 0 -0.97472496 138.76199 -800 0 -31.495035 -109.90935 
	-35.925479 -97.77538 -800 0 -0.014650931 179.16883 -800 0 
	-800 0 -31.495035 -109.90935 -800 0 -0.018607278 175.49621 
14.79 -1.1759693 143.31808 -800 0 -35.931961 -98.708824 -800 0 
	-800 0 -0.97699775 138.41876 -800 0 -31.509439 -110.07503 
	-35.931961 -98.708824 -800 0 -0.014319687 179.16766 -800 0 
	-800 0 -31.509439 -110.07503 -800 0 -0.018630844 175.48658 
14.8 -1.1669652 142.96923 -800 0 -35.964264 -99.573625 -800 0 
	-800 0 -0.97927564 138.0758 -800 0 -31.52374 -110.24057 
	-35.964264 -99.573625 -800 0 -0.014000951 179.16597 -800 0 
	-800 0 -31.52374 -110.24057 -800 0 -0.018653814 175.47694 
14.81 -1.1594724 142.6068 -800 0 -36.012542 -100.34341 -800 0 
	-800 0 -0.98220716 137.73354 -800 0 -31.540028 -110.42778 
	-36.012542 -100.34341 -800 0 -0.013717411 179.16393 -800 0 
	-800 0 -31.540028 -110.42778 -800 0 -0.018683468 175.46749 
14.82 -1.1533707 142.23505 -800 0 -36.071756 -101.02362 -800 0 
	-800 0 -0.98514236 137.39154 -800 0 -31.556199 -110.61498 
	-36.071756 -101.02362 -800 0 -0.013466176 179.16164 -800 0 
	-800 0 -31.556199 -110.61498 -800 0 -0.018712836 175.45802 
14.83 -1.1485829 141.85786 -800 0 -36.137291 -101.62268 -800 0 
	-800 0 -0.98808139 137.04979 -800 0 -31.572252 -110.80217 
	-36.137291 -101.62268 -800 0 -0.013246824 179.15918 -800 0 
	-800 0 -31.572252 -110.80217 -800 0 -0.018741918 175.44853 
14.84 -1.144944 141.4778 -800 0 -36.206072 -102.15211 -800 0 
	-800 0 -0.99102443 136.7083 -800 0 -31.588187 -110.98933 
	-36.206072 -102.15211 -800 0 -0.013056372 179.15661 -800 0 
	-800 0 -31.588187 -110.98933 -800 0 -0.018770712 175.43902 
14.85 -1.1422713 141.09657 -800 0 -36.276137 -102.62348 -800 0 
	-800 0 -0.99397164 136.36707 -800 0 -31.604005 -111.17647 
	-36.276137 -102.62348 -800 0 -0.012890973 179.15399 -800 0 
	-800 0 -31.604005 -111.17647 -800 0 -0.018799217 175.4295 
14.86 -1.1403954 140.7152 -800 0 -36.346277 -103.04714 -800 0 
	-800 0 -0.99692318 136.02609 -800 0 -31.619704 -111.36358 
	-36.346277 -103.04714 -800 0 -0.012746769 179.15134 -800 0 
	-800 0 -31.619704 -111.36358 -800 0 -0.018827432 175.41996 
14.87 -1.1391711 140.33432 -800 0 -36.415774 -103.43183 -800 0 
	-800 0 -0.99987921 135.68537 -800 0 -31.635285 -111.55066 
	-36.415774 -103.43183 -800 0 -0.012620268 179.14869 -800 0 
	-800 0 -31.635285 -111.55066 -800 0 -0.018855357 175.4104 
14.88 -1.1384786 139.95429 -800 0 -36.484225 -103.78473 -800 0 
	-800 0 -1.0028399 135.3449 -800 0 -31.650747 -111.73769 
	-36.484225 -103.78473 -800 0 -0.012508465 179.14604 -800 0 
	-800 0 -31.650747 -111.73769 -800 0 -0.018882991 175.40083 
14.89 -1.1382212 139.5753 -800 0 -36.551421 -104.11164 -800 0 
	-800 0 -1.0058054 135.00469 -800 0 -31.666091 -111.92467 
	-36.551421 -104.11164 -800 0 -0.012408839 179.1434 -800 0 
	-800 0 -31.666091 -111.92467 -800 0 -0.018910332 175.39123 
14.9 -1.1383212 139.19746 -800 0 -36.617275 -104.41723 -800 0 
	-800 0 -1.0087758 134.66473 -800 0 -31.681315 -112.1116 
	-36.617275 -104.41723 -800 0 -0.012319305 179.14078 -800 0 
	-800 0 -31.681315 -112.1116 -800 0 -0.018937379 175.38162 
14.91 -1.1389744 138.82137 -800 0 -36.68064 -104.69934 -800 0 
	-800 0 -1.0114645 134.32497 -800 0 -31.695431 -112.27134 
	-36.68064 -104.69934 -800 0 -0.012246538 179.13821 -800 0 
	-800 0 -31.695431 -112.27134 -800 0 -0.018985635 175.37182 
14.92 -1.1398702 138.44643 -800 0 -36.742674 -104.96694 -800 0 
	-800 0 -1.0141579 133.98547 -800 0 -31.709448 -112.43101 
	-36.742674 -104.96694 -800 0 -0.012180701 179.13565 -800 0 
	-800 0 -31.709448 -112.43101 -800 0 -0.019033355 175.362 
14.93 -1.1409691 138.0726 -800 0 -36.803429 -105.22246 -800 0 
	-800 0 -1.016856 133.64624 -800 0 -31.723367 -112.59061 
	-36.803429 -105.22246 -800 0 -0.012120651 179.13312 -800 0 
	-800 0 -31.723367 -112.59061 -800 0 -0.01908054 175.35216 
14.94 -1.1422394 137.69985 -800 0 -36.862969 -105.46785 -800 0 
	-800 0 -1.0195588 133.30728 -800 0 -31.737188 -112.75015 
	-36.862969 -105.46785 -800 0 -0.012065447 179.13061 -800 0 
	-800 0 -31.737188 -112.75015 -800 0 -0.019127186 175.3423 
14.95 -1.1436556 137.32814 -800 0 -36.921362 -105.7047 -800 0 
	-800 0 -1.022267 132.96857 -800 0 -31.75091 -112.9096 
	-36.921362 -105.7047 -800 0 -0.012014315 179.12812 -800 0 
	-800 0 -31.75091 -112.9096 -800 0 -0.019173293 175.33242 
14.96 -1.1451968 136.95742 -800 0 -36.978679 -105.93431 -800 0 
	-800 0 -1.0249802 132.63013 -800 0 -31.764534 -113.06898 
	-36.978679 -105.93431 -800 0 -0.011966614 179.12564 -800 0 
	-800 0 -31.764534 -113.06898 -800 0 -0.019218859 175.32252 
14.97 -1.146846 136.58765 -800 0 -37.034984 -106.15774 -800 0 
	-800 0 -1.0276987 132.29196 -800 0 -31.778059 -113.22826 
	-37.034984 -106.15774 -800 0 -0.011921811 179.12318 -800 0 
	-800 0 -31.778059 -113.22826 -800 0 -0.019263883 175.3126 
14.98 -1.1485894 136.21878 -800 0 -37.09034 -106.37588 -800 0 
	-800 0 -1.0304227 131.95405 -800 0 -31.791485 -113.38746 
	-37.09034 -106.37588 -800 0 -0.011879461 179.12073 -800 0 
	-800 0 -31.791485 -113.38746 -800 0 -0.019308364 175.30266 
14.99 -1.1504154 135.85078 -800 0 -37.144807 -106.58945 -800 0 
	-800 0 -1.0331523 131.6164 -800 0 -31.804811 -113.54656 
	-37.144807 -106.58945 -800 0 -0.01183919 179.1183 -800 0 
	-800 0 -31.804811 -113.54656 -800 0 -0.019352301 175.2927 
15 -1.1523145 135.48362 -800 0 -37.198436 -106.79907 -800 0 
	-800 0 -1.0358876 131.27901 -800 0 -31.818038 -113.70556 
	-37.198436 -106.79907 -800 0 -0.011800685 179.11589 -800 0 
	-800 0 -31.818038 -113.70556 -800 0 -0.019395691 175.28272 
15.01 -1.1545026 135.11769 -800 0 -37.250381 -106.99954 -800 0 
	-800 0 -1.0380055 130.93999 -800 0 -31.825794 -113.89169 
	-37.250381 -106.99954 -800 0 -0.011772189 179.11351 -800 0 
	-800 0 -31.825794 -113.89169 -800 0 -0.019427568 175.27284 
15.02 -1.1567466 134.75252 -800 0 -37.301582 -107.19709 -800 0 
	-800 0 -1.0401338 130.60124 -800 0 -31.833437 -114.07744 
	-37.301582 -107.19709 -800 0 -0.011744936 179.11116 -800 0 
	-800 0 -31.833437 -114.07744 -800 0 -0.019458985 175.26294 
15.03 -1.1590408 134.38806 -800 0 -37.352081 -107.39208 -800 0 
	-800 0 -1.0422723 130.26275 -800 0 -31.840967 -114.26281 
	-37.352081 -107.39208 -800 0 -0.011718733 179.10881 -800 0 
	-800 0 -31.840967 -114.26281 -800 0 -0.019489939 175.25302 
15.04 -1.1613807 134.0243 -800 0 -37.401915 -107.58481 -800 0 
	-800 0 -1.0444211 129.92453 -800 0 -31.848384 -114.44779 
	-37.401915 -107.58481 -800 0 -0.011693418 179.10647 -800 0 
	-800 0 -31.848384 -114.44779 -800 0 -0.019520428 175.24307 
15.05 -1.1637623 133.6612 -800 0 -37.451118 -107.77555 -800 0 
	-800 0 -1.0465804 129.58658 -800 0 -31.85569 -114.63238 
	-37.451118 -107.77555 -800 0 -0.011668847 179.10414 -800 0 
	-800 0 -31.85569 -114.63238 -800 0 -0.01955045 175.23311 
15.06 -1.166182 133.29876 -800 0 -37.499719 -107.96452 -800 0 
	-800 0 -1.04875 129.24888 -800 0 -31.862882 -114.81658 
	-37.499719 -107.96452 -800 0 -0.011644899 179.10182 -800 0 
	-800 0 -31.862882 -114.81658 -800 0 -0.019580005 175.22313 
15.07 -1.1686371 132.93694 -800 0 -37.547746 -108.15193 -800 0 
	-800 0 -1.0509299 128.91146 -800 0 -31.869963 -115.00038 
	-37.547746 -108.15193 -800 0 -0.011621467 179.09951 -800 0 
	-800 0 -31.869963 -115.00038 -800 0 -0.01960909 175.21313 
15.08 -1.1711249 132.57573 -800 0 -37.595225 -108.33793 -800 0 
	-800 0 -1.0531203 128.5743 -800 0 -31.876932 -115.18378 
	-37.595225 -108.33793 -800 0 -0.011598458 179.09721 -800 0 
	-800 0 -31.876932 -115.18378 -800 0 -0.019637703 175.2031 
15.09 -1.1736434 132.21511 -800 0 -37.642178 -108.52268 -800 0 
	-800 0 -1.055321 128.2374 -800 0 -31.88379 -115.36676 
	-37.642178 -108.52268 -800 0 -0.011575792 179.09492 -800 0 
	-800 0 -31.88379 -115.36676 -800 0 -0.019665843 175.19306 
15.1 -1.1761907 131.85507 -800 0 -37.688627 -108.7063 -800 0 
	-800 0 -1.0575321 127.90077 -800 0 -31.890536 -115.54934 
	-37.688627 -108.7063 -800 0 -0.011553396 179.09263 -800 0 
	-800 0 -31.890536 -115.54934 -800 0 -0.019693508 175.183 
15.11 -1.1789364 131.49599 -800 0 -37.733787 -108.88394 -800 0 
	-800 0 -1.06062 127.56479 -800 0 -31.899389 -115.71034 
	-37.733787 -108.88394 -800 0 -0.011539044 179.09038 -800 0 
	-800 0 -31.899389 -115.71034 -800 0 -0.019737065 175.17286 
15.12 -1.1817059 131.13744 -800 0 -37.77848 -109.06073 -800 0 
	-800 0 -1.0637112 127.22905 -800 0 -31.90814 -115.87107 
	-37.77848 -109.06073 -800 0 -0.011524833 179.08814 -800 0 
	-800 0 -31.90814 -115.87107 -800 0 -0.019780122 175.16269 
15.13 -1.1844982 130.77942 -800 0 -37.822721 -109.23674 -800 0 
	-800 0 -1.0668058 126.89357 -800 0 -31.916788 -116.03153 
	-37.822721 -109.23674 -800 0 -0.011510716 179.08591 -800 0 
	-800 0 -31.916788 -116.03153 -800 0 -0.019822677 175.15251 
15.14 -1.1873122 130.4219 -800 0 -37.866525 -109.41206 -800 0 
	-800 0 -1.069904 126.55834 -800 0 -31.925333 -116.19172 
	-37.866525 -109.41206 -800 0 -0.01149665 179.08368 -800 0 
	-800 0 -31.925333 -116.19172 -800 0 -0.019864726 175.1423 
15.15 -1.190147 130.06489 -800 0 -37.909903 -109.58675 -800 0 
	-800 0 -1.0730056 126.22337 -800 0 -31.933776 -116.35163 
	-37.909903 -109.58675 -800 0 -0.011482597 179.08146 -800 0 
	-800 0 -31.933776 -116.35163 -800 0 -0.01990627 175.13207 
15.16 -1.1930016 129.70838 -800 0 -37.952869 -109.76085 -800 0 
	-800 0 -1.0761107 125.88865 -800 0 -31.942116 -116.51126 
	-37.952869 -109.76085 -800 0 -0.011468524 179.07924 -800 0 
	-800 0 -31.942116 -116.51126 -800 0 -0.019947304 175.12182 
15.17 -1.1958755 129.35234 -800 0 -37.995433 -109.93443 -800 0 
	-800 0 -1.0792193 125.55418 -800 0 -31.950353 -116.6706 
	-37.995433 -109.93443 -800 0 -0.011454399 179.07702 -800 0 
	-800 0 -31.950353 -116.6706 -800 0 -0.019987828 175.11155 
15.18 -1.1987679 128.99679 -800 0 -38.037605 -110.10753 -800 0 
	-800 0 -1.0823314 125.21997 -800 0 -31.958488 -116.82965 
	-38.037605 -110.10753 -800 0 -0.011440195 179.07482 -800 0 
	-800 0 -31.958488 -116.82965 -800 0 -0.020027839 175.10126 
15.19 -1.2016782 128.64169 -800 0 -38.079395 -110.28018 -800 0 
	-800 0 -1.085447 124.88602 -800 0 -31.96652 -116.98841 
	-38.079395 -110.28018 -800 0 -0.011425887 179.07261 -800 0 
	-800 0 -31.96652 -116.98841 -800 0 -0.020067335 175.09095 
15.2 -1.2046059 128.28706 -800 0 -38.12081 -110.45242 -800 0 
	-800 0 -1.0885662 124.55232 -800 0 -31.974449 -117.14687 
	-38.12081 -110.45242 -800 0 -0.011411453 179.07041 -800 0 
	-800 0 -31.974449 -117.14687 -800 0 -0.020106314 175.08061 
15.21 -1.2076821 127.93311 -800 0 -38.160997 -110.62079 -800 0 
	-800 0 -1.0918424 124.2193 -800 0 -31.983231 -117.30475 
	-38.160997 -110.62079 -800 0 -0.011403014 179.06825 -800 0 
	-800 0 -31.983231 -117.30475 -800 0 -0.020149726 175.07018 
15.22 -1.2107735 127.57958 -800 0 -38.200827 -110.78883 -800 0 
	-800 0 -1.0951217 123.88654 -800 0 -31.991905 -117.46238 
	-38.200827 -110.78883 -800 0 -0.011394419 179.06609 -800 0 
	-800 0 -31.991905 -117.46238 -800 0 -0.020192546 175.05972 
15.23 -1.2138798 127.22649 -800 0 -38.240306 -110.95656 -800 0 
	-800 0 -1.098404 123.55403 -800 0 -32.00047 -117.61975 
	-38.240306 -110.95656 -800 0 -0.011385651 179.06393 -800 0 
	-800 0 -32.00047 -117.61975 -800 0 -0.020234773 175.04925 
15.24 -1.2170005 126.87382 -800 0 -38.27944 -111.12401 -800 0 
	-800 0 -1.1016893 123.22177 -800 0 -32.008926 -117.77686 
	-38.27944 -111.12401 -800 0 -0.011376695 179.06178 -800 0 
	-800 0 -32.008926 -117.77686 -800 0 -0.020276403 175.03875 
15.25 -1.2201354 126.52157 -800 0 -38.318236 -111.29119 -800 0 
	-800 0 -1.1049775 122.88976 -800 0 -32.017273 -117.93371 
	-38.318236 -111.29119 -800 0 -0.011367539 179.05963 -800 0 
	-800 0 -32.017273 -117.93371 -800 0 -0.020317435 175.02823 
15.26 -1.2232841 126.16973 -800 0 -38.356697 -111.45812 -800 0 
	-800 0 -1.1082686 122.55801 -800 0 -32.025511 -118.09029 
	-38.356697 -111.45812 -800 0 -0.011358169 179.05749 -800 0 
	-800 0 -32.025511 -118.09029 -800 0 -0.020357865 175.01768 
15.27 -1.2264463 125.81829 -800 0 -38.39483 -111.62481 -800 0 
	-800 0 -1.1115626 122.2265 -800 0 -32.03364 -118.24659 
	-38.39483 -111.62481 -800 0 -0.011348576 179.05534 -800 0 
	-800 0 -32.03364 -118.24659 -800 0 -0.020397691 175.00711 
15.28 -1.2296216 125.46726 -800 0 -38.432638 -111.79127 -800 0 
	-800 0 -1.1148592 121.89525 -800 0 -32.04166 -118.40262 
	-38.432638 -111.79127 -800 0 -0.011338748 179.0532 -800 0 
	-800 0 -32.04166 -118.40262 -800 0 -0.02043691 174.99652 
15.29 -1.23281 125.11662 -800 0 -38.470127 -111.9575 -800 0 
	-800 0 -1.1181586 121.56425 -800 0 -32.04957 -118.55837 
	-38.470127 -111.9575 -800 0 -0.011328676 179.05106 -800 0 
	-800 0 -32.04957 -118.55837 -800 0 -0.02047552 174.98591 
15.3 -1.236011 124.76638 -800 0 -38.507299 -112.12353 -800 0 
	-800 0 -1.1214605 121.2335 -800 0 -32.057371 -118.71383 
	-38.507299 -112.12353 -800 0 -0.011318351 179.04893 -800 0 
	-800 0 -32.057371 -118.71383 -800 0 -0.020513517 174.97527 
15.31 -1.2393197 124.41656 -800 0 -38.543205 -112.28675 -800 0 
	-800 0 -1.1249729 120.90265 -800 0 -32.063635 -118.87031 
	-38.543205 -112.28675 -800 0 -0.011312148 179.04683 -800 0 
	-800 0 -32.063635 -118.87031 -800 0 -0.020566207 174.96467 
15.32 -1.2426396 124.06712 -800 0 -38.578805 -112.44974 -800 0 
	-800 0 -1.1284858 120.57204 -800 0 -32.069789 -119.02648 
	-38.578805 -112.44974 -800 0 -0.011305697 179.04474 -800 0 
	-800 0 -32.069789 -119.02648 -800 0 -0.020618375 174.95404 
15.33 -1.2459705 123.71804 -800 0 -38.614104 -112.61252 -800 0 
	-800 0 -1.131999 120.24168 -800 0 -32.075832 -119.18235 
	-38.614104 -112.61252 -800 0 -0.011298992 179.04265 -800 0 
	-800 0 -32.075832 -119.18235 -800 0 -0.020670016 174.94338 
15.34 -1.2493121 123.36932 -800 0 -38.649102 -112.77508 -800 0 
	-800 0 -1.1355125 119.91156 -800 0 -32.081763 -119.33791 
	-38.649102 -112.77508 -800 0 -0.011292026 179.04056 -800 0 
	-800 0 -32.081763 -119.33791 -800 0 -0.020721129 174.93271 
15.35 -1.2526643 123.02097 -800 0 -38.683805 -112.93742 -800 0 
	-800 0 -1.1390262 119.58168 -800 0 -32.087583 -119.49315 
	-38.683805 -112.93742 -800 0 -0.011284796 179.03847 -800 0 
	-800 0 -32.087583 -119.49315 -800 0 -0.020771708 174.922 
15.36 -1.2560267 122.67297 -800 0 -38.718214 -113.09955 -800 0 
	-800 0 -1.1425398 119.25204 -800 0 -32.093292 -119.64808 
	-38.718214 -113.09955 -800 0 -0.011277296 179.03638 -800 0 
	-800 0 -32.093292 -119.64808 -800 0 -0.020821752 174.91128 
15.37 -1.2593993 122.32533 -800 0 -38.752332 -113.26145 -800 0 
	-800 0 -1.1460532 118.92264 -800 0 -32.098889 -119.80269 
	-38.752332 -113.26145 -800 0 -0.011269521 179.03429 -800 0 
	-800 0 -32.098889 -119.80269 -800 0 -0.020871256 174.90053 
15.38 -1.2627816 121.97803 -800 0 -38.786162 -113.42314 -800 0 
	-800 0 -1.1495663 118.59349 -800 0 -32.104375 -119.95697 
	-38.786162 -113.42314 -800 0 -0.011261467 179.03221 -800 0 
	-800 0 -32.104375 -119.95697 -800 0 -0.020920218 174.88975 
15.39 -1.2661736 121.63107 -800 0 -38.819707 -113.58459 -800 0 
	-800 0 -1.1530789 118.26458 -800 0 -32.109749 -120.11093 
	-38.819707 -113.58459 -800 0 -0.011253132 179.03012 -800 0 
	-800 0 -32.109749 -120.11093 -800 0 -0.020968634 174.87895 
15.4 -1.2695751 121.28444 -800 0 -38.852968 -113.74582 -800 0 
	-800 0 -1.1565909 117.93591 -800 0 -32.115011 -120.26456 
	-38.852968 -113.74582 -800 0 -0.011244511 179.02804 -800 0 
	-800 0 -32.115011 -120.26456 -800 0 -0.0210165 174.86812 
15.41 -1.2730585 120.938 -800 0 -38.884937 -113.9042 -800 0 
	-800 0 -1.1602599 117.60685 -800 0 -32.120713 -120.42072 
	-38.884937 -113.9042 -800 0 -0.011238758 179.026 -800 0 
	-800 0 -32.120713 -120.42072 -800 0 -0.021065185 174.85729 
15.42 -1.2765499 120.59187 -800 0 -38.916632 -114.06227 -800 0 
	-800 0 -1.1639268 117.27804 -800 0 -32.126301 -120.57659 
	-38.916632 -114.06227 -800 0 -0.01123274 179.02396 -800 0 
	-800 0 -32.126301 -120.57659 -800 0 -0.021113344 174.84644 
15.43 -1.2800491 120.24606 -800 0 -38.948057 -114.22003 -800 0 
	-800 0 -1.1675911 116.94946 -800 0 -32.131775 -120.73215 
	-38.948057 -114.22003 -800 0 -0.011226455 179.02192 -800 0 
	-800 0 -32.131775 -120.73215 -800 0 -0.021160972 174.83555 
15.44 -1.2835558 119.90054 -800 0 -38.979215 -114.37747 -800 0 
	-800 0 -1.1712528 116.62113 -800 0 -32.137134 -120.88741 
	-38.979215 -114.37747 -800 0 -0.011219902 179.01988 -800 0 
	-800 0 -32.137134 -120.88741 -800 0 -0.021208067 174.82465 
15.45 -1.2870699 119.55533 -800 0 -39.010108 -114.53458 -800 0 
	-800 0 -1.1749117 116.29303 -800 0 -32.142379 -121.04237 
	-39.010108 -114.53458 -800 0 -0.011213079 179.01784 -800 0 
	-800 0 -32.142379 -121.04237 -800 0 -0.021254623 174.81372 
15.46 -1.2905912 119.21041 -800 0 -39.040738 -114.69134 -800 0 
	-800 0 -1.1785674 115.96516 -800 0 -32.147508 -121.19701 
	-39.040738 -114.69134 -800 0 -0.011205987 179.0158 -800 0 
	-800 0 -32.147508 -121.19701 -800 0 -0.021300639 174.80276 
15.47 -1.2941192 118.86578 -800 0 -39.071109 -114.84773 -800 0 
	-800 0 -1.1822198 115.63754 -800 0 -32.152523 -121.35135 
	-39.071109 -114.84773 -800 0 -0.011198626 179.01376 -800 0 
	-800 0 -32.152523 -121.35135 -800 0 -0.02134611 174.79178 
15.48 -1.2976537 118.52142 -800 0 -39.101223 -115.00374 -800 0 
	-800 0 -1.1858687 115.31015 -800 0 -32.157423 -121.50537 
	-39.101223 -115.00374 -800 0 -0.011190996 179.01172 -800 0 
	-800 0 -32.157423 -121.50537 -800 0 -0.021391033 174.78077 
15.49 -1.3011942 118.17733 -800 0 -39.131083 -115.15935 -800 0 
	-800 0 -1.1895138 114.98299 -800 0 -32.162208 -121.65908 
	-39.131083 -115.15935 -800 0 -0.011183098 179.00968 -800 0 
	-800 0 -32.162208 -121.65908 -800 0 -0.021435404 174.76973 
15.5 -1.3047404 117.83351 -800 0 -39.160692 -115.31453 -800 0 
	-800 0 -1.1931549 114.65607 -800 0 -32.166878 -121.81247 
	-39.160692 -115.31453 -800 0 -0.011174935 179.00764 -800 0 
	-800 0 -32.166878 -121.81247 -800 0 -0.021479219 174.75867 
15.51 -1.3083936 117.48981 -800 0 -39.18906 -115.46567 -800 0 
	-800 0 -1.1969876 114.32828 -800 0 -32.170524 -121.96812 
	-39.18906 -115.46567 -800 0 -0.0111696 179.00563 -800 0 
	-800 0 -32.170524 -121.96812 -800 0 -0.021532495 174.74763 
15.52 -1.3120501 117.14635 -800 0 -39.217189 -115.61627 -800 0 
	-800 0 -1.2008137 114.00071 -800 0 -32.174053 -122.12344 
	-39.217189 -115.61627 -800 0 -0.011164027 179.00363 -800 0 
	-800 0 -32.174053 -122.12344 -800 0 -0.021585308 174.73656 
15.53 -1.3157091 116.80311 -800 0 -39.245083 -115.76631 -800 0 
	-800 0 -1.2046328 113.67337 -800 0 -32.177465 -122.27843 
	-39.245083 -115.76631 -800 0 -0.011158221 179.00163 -800 0 
	-800 0 -32.177465 -122.27843 -800 0 -0.021637653 174.72547 
15.54 -1.31937 116.46008 -800 0 -39.272746 -115.91575 -800 0 
	-800 0 -1.2084447 113.34625 -800 0 -32.180758 -122.43307 
	-39.272746 -115.91575 -800 0 -0.011152189 178.99962 -800 0 
	-800 0 -32.180758 -122.43307 -800 0 -0.021689528 174.71435 
15.55 -1.323032 116.11727 -800 0 -39.300182 -116.06455 -800 0 
	-800 0 -1.2122492 113.01936 -800 0 -32.183933 -122.58737 
	-39.300182 -116.06455 -800 0 -0.011145936 178.99762 -800 0 
	-800 0 -32.183933 -122.58737 -800 0 -0.021740928 174.7032 
15.56 -1.3266943 115.77465 -800 0 -39.327396 -116.21266 -800 0 
	-800 0 -1.2160459 112.69268 -800 0 -32.186991 -122.74134 
	-39.327396 -116.21266 -800 0 -0.011139472 178.99561 -800 0 
	-800 0 -32.186991 -122.74134 -800 0 -0.021791848 174.69203 
15.57 -1.3303559 115.43222 -800 0 -39.354392 -116.36003 -800 0 
	-800 0 -1.2198345 112.36623 -800 0 -32.189931 -122.89496 
	-39.354392 -116.36003 -800 0 -0.011132806 178.9936 -800 0 
	-800 0 -32.189931 -122.89496 -800 0 -0.021842287 174.68083 
15.58 -1.3340159 115.08997 -800 0 -39.381176 -116.50658 -800 0 
	-800 0 -1.2236148 112.03999 -800 0 -32.192752 -123.04823 
	-39.381176 -116.50658 -800 0 -0.011125951 178.9916 -800 0 
	-800 0 -32.192752 -123.04823 -800 0 -0.021892239 174.6696 
15.59 -1.3376733 114.7479 -800 0 -39.407755 -116.65226 -800 0 
	-800 0 -1.2273863 111.71397 -800 0 -32.195456 -123.20116 
	-39.407755 -116.65226 -800 0 -0.01111892 178.98959 -800 0 
	-800 0 -32.195456 -123.20116 -800 0 -0.0219417 174.65834 
15.6 -1.3413275 114.406 -800 0 -39.434133 -116.79698 -800 0 
	-800 0 -1.2311489 111.38817 -800 0 -32.198042 -123.35374 
	-39.434133 -116.79698 -800 0 -0.011111731 178.98758 -800 0 
	-800 0 -32.198042 -123.35374 -800 0 -0.021990667 174.64706 
15.61 -1.3451152 114.06416 -800 0 -39.459323 -116.93658 -800 0 
	-800 0 -1.2348793 111.06248 -800 0 -32.201115 -123.50254 
	-39.459323 -116.93658 -800 0 -0.011108353 178.98559 -800 0 
	-800 0 -32.201115 -123.50254 -800 0 -0.022049162 174.63565 
15.62 -1.3488969 113.72247 -800 0 -39.484331 -117.07502 -800 0 
	-800 0 -1.2386 110.73702 -800 0 -32.204066 -123.65103 
	-39.484331 -117.07502 -800 0 -0.011104876 178.98361 -800 0 
	-800 0 -32.204066 -123.65103 -800 0 -0.022107064 174.6242 
15.63 -1.3526727 113.38093 -800 0 -39.509166 -117.21216 -800 0 
	-800 0 -1.2423105 110.41176 -800 0 -32.206896 -123.7992 
	-39.509166 -117.21216 -800 0 -0.011101328 178.98163 -800 0 
	-800 0 -32.206896 -123.7992 -800 0 -0.022164367 174.61273 
15.64 -1.3564429 113.03952 -800 0 -39.533837 -117.34787 -800 0 
	-800 0 -1.2460105 110.08672 -800 0 -32.209604 -123.94706 
	-39.533837 -117.34787 -800 0 -0.011097741 178.97964 -800 0 
	-800 0 -32.209604 -123.94706 -800 0 -0.022221066 174.60123 
15.65 -1.3602084 112.69824 -800 0 -39.558352 -117.48197 -800 0 
	-800 0 -1.2496998 109.76188 -800 0 -32.212191 -124.0946 
	-39.558352 -117.48197 -800 0 -0.011094154 178.97765 -800 0 
	-800 0 -32.212191 -124.0946 -800 0 -0.022277157 174.5897 
15.66 -1.3639703 112.3571 -800 0 -39.582722 -117.61429 -800 0 
	-800 0 -1.253378 109.43725 -800 0 -32.214657 -124.24182 
	-39.582722 -117.61429 -800 0 -0.011090613 178.97566 -800 0 
	-800 0 -32.214657 -124.24182 -800 0 -0.022332634 174.57814 
15.67 -1.3677305 112.01607 -800 0 -39.606957 -117.7446 -800 0 
	-800 0 -1.2570447 109.11282 -800 0 -32.217001 -124.38873 
	-39.606957 -117.7446 -800 0 -0.011087171 178.97367 -800 0 
	-800 0 -32.217001 -124.38873 -800 0 -0.022387492 174.56656 
15.68 -1.3714914 111.67515 -800 0 -39.631065 -117.87264 -800 0 
	-800 0 -1.2606997 108.78859 -800 0 -32.219224 -124.53532 
	-39.631065 -117.87264 -800 0 -0.011083895 178.97167 -800 0 
	-800 0 -32.219224 -124.53532 -800 0 -0.022441726 174.55494 
15.69 -1.3752559 111.33434 -800 0 -39.655057 -117.9981 -800 0 
	-800 0 -1.2643425 108.46455 -800 0 -32.221325 -124.68159 
	-39.655057 -117.9981 -800 0 -0.011080861 178.96967 -800 0 
	-800 0 -32.221325 -124.68159 -800 0 -0.02249533 174.54329 
15.7 -1.3790277 110.99361 -800 0 -39.678939 -118.12063 -800 0 
	-800 0 -1.2679729 108.14071 -800 0 -32.223306 -124.82754 
	-39.678939 -118.12063 -800 0 -0.011078162 178.96767 -800 0 
	-800 0 -32.223306 -124.82754 -800 0 -0.022548299 174.53162 
15.71 -1.3829436 110.6527 -800 0 -39.701676 -118.23709 -800 0 
	-800 0 -1.271657 107.817 -800 0 -32.222907 -124.96598 
	-39.701676 -118.23709 -800 0 -0.011080988 178.96569 -800 0 
	-800 0 -32.222907 -124.96598 -800 0 -0.022587786 174.51995 
15.72 -1.3868749 110.31184 -800 0 -39.724314 -118.34972 -800 0 
	-800 0 -1.2753264 107.49347 -800 0 -32.222402 -125.10398 
	-39.724314 -118.34972 -800 0 -0.01108441 178.96371 -800 0 
	-800 0 -32.222402 -125.10398 -800 0 -0.022626599 174.50826 
15.73 -1.3908278 109.97101 -800 0 -39.746848 -118.45793 -800 0 
	-800 0 -1.2789808 107.17012 -800 0 -32.221791 -125.24156 
	-39.746848 -118.45793 -800 0 -0.011088591 178.96172 -800 0 
	-800 0 -32.221791 -125.24156 -800 0 -0.022664733 174.49654 
15.74 -1.3948101 109.6302 -800 0 -39.769262 -118.56099 -800 0 
	-800 0 -1.2826199 106.84693 -800 0 -32.221075 -125.37871 
	-39.769262 -118.56099 -800 0 -0.011093724 178.95974 -800 0 
	-800 0 -32.221075 -125.37871 -800 0 -0.022702182 174.48478 
15.75 -1.3988308 109.2894 -800 0 -39.791527 -118.65804 -800 0 
	-800 0 -1.2862433 106.52392 -800 0 -32.220254 -125.51544 
	-39.791527 -118.65804 -800 0 -0.011100045 178.95774 -800 0 
	-800 0 -32.220254 -125.51544 -800 0 -0.022738942 174.473 
15.76 -1.4029011 108.9486 -800 0 -39.813595 -118.74807 -800 0 
	-800 0 -1.2898507 106.20107 -800 0 -32.219329 -125.65174 
	-39.813595 -118.74807 -800 0 -0.011107834 178.95575 -800 0 
	-800 0 -32.219329 -125.65174 -800 0 -0.022775008 174.46119 
15.77 -1.4070347 108.60783 -800 0 -39.835382 -118.82987 -800 0 
	-800 0 -1.2934418 105.87838 -800 0 -32.218299 -125.78762 
	-39.835382 -118.82987 -800 0 -0.011117429 178.95375 -800 0 
	-800 0 -32.218299 -125.78762 -800 0 -0.022810376 174.44935 
15.78 -1.4112479 108.26709 -800 0 -39.856763 -118.90205 -800 0 
	-800 0 -1.2970161 105.55584 -800 0 -32.217166 -125.92307 
	-39.856763 -118.90205 -800 0 -0.01112923 178.95175 -800 0 
	-800 0 -32.217166 -125.92307 -800 0 -0.022845039 174.43748 
15.79 -1.4155599 107.92645 -800 0 -39.877546 -118.96301 -800 0 
	-800 0 -1.3005735 105.23346 -800 0 -32.21593 -126.05811 
	-39.877546 -118.96301 -800 0 -0.0111437 178.94975 -800 0 
	-800 0 -32.21593 -126.05811 -800 0 -0.022878994 174.42558 
15.8 -1.4199928 107.58599 -800 0 -39.897449 -119.01101 -800 0 
	-800 0 -1.3041135 104.91123 -800 0 -32.21459 -126.19272 
	-39.897449 -119.01101 -800 0 -0.011161363 178.94776 -800 0 
	-800 0 -32.21459 -126.19272 -800 0 -0.022912234 174.41364 
15.81 -1.4246896 107.24549 -800 0 -39.915065 -119.04429 -800 0 
	-800 0 -1.3087063 104.59272 -800 0 -32.220221 -126.31636 
	-39.915065 -119.04429 -800 0 -0.011188787 178.9458 -800 0 
	-800 0 -32.220221 -126.31636 -800 0 -0.022983242 174.40158 
15.82 -1.4295549 106.90554 -800 0 -39.930828 -119.06129 -800 0 
	-800 0 -1.3132806 104.27431 -800 0 -32.22575 -126.44004 
	-39.930828 -119.06129 -800 0 -0.011220535 178.94386 -800 0 
	-800 0 -32.22575 -126.44004 -800 0 -0.023053585 174.38948 
15.83 -1.4346082 106.5665 -800 0 -39.943957 -119.06102 -800 0 
	-800 0 -1.3178361 103.95597 -800 0 -32.231177 -126.56378 
	-39.943957 -119.06102 -800 0 -0.011257017 178.94194 -800 0 
	-800 0 -32.231177 -126.56378 -800 0 -0.023123258 174.37734 
15.84 -1.4398562 106.22883 -800 0 -39.953428 -119.0438 -800 0 
	-800 0 -1.3223725 103.63772 -800 0 -32.236502 -126.68756 
	-39.953428 -119.0438 -800 0 -0.011298317 178.94005 -800 0 
	-800 0 -32.236502 -126.68756 -800 0 -0.023192255 174.36518 
15.85 -1.4452808 105.89312 -800 0 -39.957996 -119.01234 -800 0 
	-800 0 -1.3268896 103.31954 -800 0 -32.241724 -126.8114 
	-39.957996 -119.01234 -800 0 -0.011343875 178.93822 -800 0 
	-800 0 -32.241724 -126.8114 -800 0 -0.02326057 174.35298 
15.86 -1.4508237 105.56002 -800 0 -39.956306 -118.97311 -800 0 
	-800 0 -1.3313869 103.00143 -800 0 -32.246843 -126.9353 
	-39.956306 -118.97311 -800 0 -0.011392062 178.93646 -800 0 
	-800 0 -32.246843 -126.9353 -800 0 -0.023328198 174.34074 
15.87 -1.4563732 105.23012 -800 0 -39.947169 -118.9376 -800 0 
	-800 0 -1.3358643 102.68339 -800 0 -32.25186 -127.05926 
	-39.947169 -118.9376 -800 0 -0.011439756 178.93479 -800 0 
	-800 0 -32.25186 -127.05926 -800 0 -0.023395132 174.32848 
15.88 -1.4617634 104.90374 -800 0 -39.930037 -118.92257 -800 0 
	-800 0 -1.3403214 102.3654 -800 0 -32.256774 -127.18328 
	-39.930037 -118.92257 -800 0 -0.011482183 178.93321 -800 0 
	-800 0 -32.256774 -127.18328 -800 0 -0.023461366 174.31618 
15.89 -1.4667975 104.58065 -800 0 -39.905571 -118.94807 -800 0 
	-800 0 -1.3447581 102.04746 -800 0 -32.261585 -127.30736 
	-39.905571 -118.94807 -800 0 -0.011513422 178.93173 -800 0 
	-800 0 -32.261585 -127.30736 -800 0 -0.023526895 174.30385 
15.9 -1.4712959 104.26001 -800 0 -39.875991 -119.03242 -800 0 
	-800 0 -1.3491739 101.72958 -800 0 -32.266292 -127.4315 
	-39.875991 -119.03242 -800 0 -0.01152783 178.9303 -800 0 
	-800 0 -32.266292 -127.4315 -800 0 -0.023591713 174.29148 
15.91 -1.4752528 103.94001 -800 0 -39.843983 -119.18841 -800 0 
	-800 0 -1.3528235 101.40654 -800 0 -32.263982 -127.5774 
	-39.843983 -119.18841 -800 0 -0.011528581 178.92893 -800 0 
	-800 0 -32.263982 -127.5774 -800 0 -0.023657931 174.27916 
15.92 -1.4785638 103.61959 -800 0 -39.814341 -119.41112 -800 0 
	-800 0 -1.3564493 101.08359 -800 0 -32.261546 -127.72296 
	-39.814341 -119.41112 -800 0 -0.01150945 178.92752 -800 0 
	-800 0 -32.261546 -127.72296 -800 0 -0.02372352 174.2668 
15.93 -1.4813239 103.29749 -800 0 -39.79023 -119.68666 -800 0 
	-800 0 -1.3600511 100.76071 -800 0 -32.258986 -127.86819 
	-39.79023 -119.68666 -800 0 -0.011474181 178.92604 -800 0 
	-800 0 -32.258986 -127.86819 -800 0 -0.02378847 174.2544 
15.94 -1.4836853 102.9729 -800 0 -39.773315 -119.99506 -800 0 
	-800 0 -1.3636287 100.4379 -800 0 -32.256301 -128.01308 
	-39.773315 -119.99506 -800 0 -0.011428459 178.92447 -800 0 
	-800 0 -32.256301 -128.01308 -800 0 -0.023852774 174.24197 
15.95 -1.485809 102.64558 -800 0 -39.763741 -120.31669 -800 0 
	-800 0 -1.367182 100.11516 -800 0 -32.253494 -128.15764 
	-39.763741 -120.31669 -800 0 -0.011378012 178.9228 -800 0 
	-800 0 -32.253494 -128.15764 -800 0 -0.023916424 174.22951 
15.96 -1.4878309 102.31564 -800 0 -39.760619 -120.63635 -800 0 
	-800 0 -1.3707108 99.792465 -800 0 -32.250564 -128.30185 
	-39.760619 -120.63635 -800 0 -0.011327337 178.92105 -800 0 
	-800 0 -32.250564 -128.30185 -800 0 -0.023979413 174.21701 
15.97 -1.4898473 101.98346 -800 0 -39.762603 -120.94438 -800 0 
	-800 0 -1.3742148 99.469822 -800 0 -32.247512 -128.44574 
	-39.762603 -120.94438 -800 0 -0.011279318 178.91922 -800 0 
	-800 0 -32.247512 -128.44574 -800 0 -0.024041731 174.20448 
15.98 -1.4919172 101.64946 -800 0 -39.768305 -121.23592 -800 0 
	-800 0 -1.3776941 99.147222 -800 0 -32.24434 -128.58928 
	-39.768305 -121.23592 -800 0 -0.011235435 178.91734 -800 0 
	-800 0 -32.24434 -128.58928 -800 0 -0.024103371 174.19191 
15.99 -1.4940701 101.31403 -800 0 -39.776521 -121.50942 -800 0 
	-800 0 -1.3811484 98.824658 -800 0 -32.241048 -128.7325 
	-39.776521 -121.50942 -800 0 -0.011196177 178.91542 -800 0 
	-800 0 -32.241048 -128.7325 -800 0 -0.024164325 174.1793 
16 -1.4963158 100.97753 -800 0 -39.786299 -121.76533 -800 0 
	-800 0 -1.3845776 98.502122 -800 0 -32.237636 -128.87537 
	-39.786299 -121.76533 -800 0 -0.011161444 178.91347 -800 0 
	-800 0 -32.237636 -128.87537 -800 0 -0.024224584 174.16666 
16.01 -1.4987612 100.63974 -800 0 -39.796372 -122.0102 -800 0 
	-800 0 -1.3881505 98.179597 -800 0 -32.2341 -129.04017 
	-39.796372 -122.0102 -800 0 -0.011137068 178.91153 -800 0 
	-800 0 -32.2341 -129.04017 -800 0 -0.024331019 174.15417 
16.02 -1.5012894 100.30134 -800 0 -39.806787 -122.24094 -800 0 
	-800 0 -1.391699 97.857071 -800 0 -32.230424 -129.2048 
	-39.806787 -122.24094 -800 0 -0.01111632 178.90958 -800 0 
	-800 0 -32.230424 -129.2048 -800 0 -0.024437367 174.14165 
16.03 -1.5038897 99.962478 -800 0 -39.817191 -122.45946 -800 0 
	-800 0 -1.3952231 97.534537 -800 0 -32.22661 -129.36928 
	-39.817191 -122.45946 -800 0 -0.01109866 178.90763 -800 0 
	-800 0 -32.22661 -129.36928 -800 0 -0.02454362 174.12909 
16.04 -1.5065502 99.623271 -800 0 -39.827346 -122.66753 -800 0 
	-800 0 -1.3987227 97.211988 -800 0 -32.222657 -129.5336 
	-39.827346 -122.66753 -800 0 -0.011083587 178.90567 -800 0 
	-800 0 -32.222657 -129.5336 -800 0 -0.024649774 174.11649 
16.05 -1.5092598 99.283789 -800 0 -39.837093 -122.86671 -800 0 
	-800 0 -1.4021977 96.889415 -800 0 -32.218568 -129.69775 
	-39.837093 -122.86671 -800 0 -0.011070653 178.9037 -800 0 
	-800 0 -32.218568 -129.69775 -800 0 -0.024755822 174.10385 
16.06 -1.5120081 98.944081 -800 0 -39.846331 -123.05837 -800 0 
	-800 0 -1.4056483 96.566811 -800 0 -32.214342 -129.86174 
	-39.846331 -123.05837 -800 0 -0.011059475 178.90174 -800 0 
	-800 0 -32.214342 -129.86174 -800 0 -0.024861757 174.09118 
16.07 -1.5147858 98.604178 -800 0 -39.854996 -123.24365 -800 0 
	-800 0 -1.4090744 96.244168 -800 0 -32.20998 -130.02556 
	-39.854996 -123.24365 -800 0 -0.011049725 178.89977 -800 0 
	-800 0 -32.20998 -130.02556 -800 0 -0.024967575 174.07846 
16.08 -1.5175848 98.264099 -800 0 -39.863049 -123.42352 -800 0 
	-800 0 -1.4124759 95.921479 -800 0 -32.205482 -130.18922 
	-39.863049 -123.42352 -800 0 -0.011041129 178.89781 -800 0 
	-800 0 -32.205482 -130.18922 -800 0 -0.025073268 174.06571 
16.09 -1.5203982 97.923851 -800 0 -39.87047 -123.59877 -800 0 
	-800 0 -1.4158531 95.598736 -800 0 -32.20085 -130.3527 
	-39.87047 -123.59877 -800 0 -0.011033458 178.89584 -800 0 
	-800 0 -32.20085 -130.3527 -800 0 -0.02517883 174.05291 
16.1 -1.5232198 97.583438 -800 0 -39.87725 -123.77008 -800 0 
	-800 0 -1.4192058 95.275931 -800 0 -32.196084 -130.51602 
	-39.87725 -123.77008 -800 0 -0.011026519 178.89387 -800 0 
	-800 0 -32.196084 -130.51602 -800 0 -0.025284255 174.04008 
16.11 -1.526167 97.242358 -800 0 -39.883095 -123.94402 -800 0 
	-800 0 -1.4226971 94.953582 -800 0 -32.192235 -130.65779 
	-39.883095 -123.94402 -800 0 -0.011025395 178.89194 -800 0 
	-800 0 -32.192235 -130.65779 -800 0 -0.0253667 174.02709 
16.12 -1.5291136 96.901095 -800 0 -39.888306 -124.11519 -800 0 
	-800 0 -1.4261627 94.631153 -800 0 -32.188274 -130.79935 
	-39.888306 -124.11519 -800 0 -0.011024746 178.89 -800 0 
	-800 0 -32.188274 -130.79935 -800 0 -0.025448628 174.01405 
16.13 -1.532056 96.559641 -800 0 -39.89289 -124.28397 -800 0 
	-800 0 -1.4296028 94.308637 -800 0 -32.184203 -130.94071 
	-39.89289 -124.28397 -800 0 -0.011024459 178.88807 -800 0 
	-800 0 -32.184203 -130.94071 -800 0 -0.02553003 174.00098 
16.14 -1.5349909 96.217983 -800 0 -39.896853 -124.4507 -800 0 
	-800 0 -1.4330175 93.986026 -800 0 -32.180022 -131.08185 
	-39.896853 -124.4507 -800 0 -0.011024442 178.88613 -800 0 
	-800 0 -32.180022 -131.08185 -800 0 -0.025610897 173.98787 
16.15 -1.5379156 95.87611 -800 0 -39.900203 -124.61563 -800 0 
	-800 0 -1.436407 93.663312 -800 0 -32.175732 -131.22279 
	-39.900203 -124.61563 -800 0 -0.011024615 178.88419 -800 0 
	-800 0 -32.175732 -131.22279 -800 0 -0.02569122 173.97471 
16.16 -1.5408277 95.534009 -800 0 -39.902949 -124.77902 -800 0 
	-800 0 -1.4397716 93.340485 -800 0 -32.171334 -131.36352 
	-39.902949 -124.77902 -800 0 -0.011024911 178.88225 -800 0 
	-800 0 -32.171334 -131.36352 -800 0 -0.025770992 173.96152 
16.17 -1.5437254 95.191665 -800 0 -39.905097 -124.94104 -800 0 
	-800 0 -1.4431115 93.01754 -800 0 -32.16683 -131.50403 
	-39.905097 -124.94104 -800 0 -0.011025272 178.88031 -800 0 
	-800 0 -32.16683 -131.50403 -800 0 -0.025850203 173.94829 
16.18 -1.5466068 94.849063 -800 0 -39.906655 -125.10187 -800 0 
	-800 0 -1.4464269 92.694467 -800 0 -32.162221 -131.64433 
	-39.906655 -125.10187 -800 0 -0.01102565 178.87837 -800 0 
	-800 0 -32.162221 -131.64433 -800 0 -0.025928845 173.93501 
16.19 -1.5494706 94.50619 -800 0 -39.90763 -125.26165 -800 0 
	-800 0 -1.4497183 92.371258 -800 0 -32.157506 -131.78441 
	-39.90763 -125.26165 -800 0 -0.011026001 178.87642 -800 0 
	-800 0 -32.157506 -131.78441 -800 0 -0.026006908 173.9217 
16.2 -1.5523155 94.163028 -800 0 -39.908026 -125.42049 -800 0 
	-800 0 -1.4529858 92.047905 -800 0 -32.152688 -131.92427 
	-39.908026 -125.42049 -800 0 -0.01102629 178.87448 -800 0 
	-800 0 -32.152688 -131.92427 -800 0 -0.026084385 173.90835 
16.21 -1.5552429 93.819033 -800 0 -39.907391 -125.58263 -800 0 
	-800 0 -1.4557604 91.722178 -800 0 -32.143536 -132.08431 
	-39.907391 -125.58263 -800 0 -0.011030588 178.87256 -800 0 
	-800 0 -32.143536 -132.08431 -800 0 -0.026155913 173.89501 
16.22 -1.55815 93.474711 -800 0 -39.906192 -125.74412 -800 0 
	-800 0 -1.4585122 91.396297 -800 0 -32.134271 -132.24391 
	-39.906192 -125.74412 -800 0 -0.011034796 178.87064 -800 0 
	-800 0 -32.134271 -132.24391 -800 0 -0.026226872 173.88163 
16.23 -1.5610361 93.130049 -800 0 -39.904432 -125.90503 -800 0 
	-800 0 -1.4612416 91.070252 -800 0 -32.124896 -132.40305 
	-39.904432 -125.90503 -800 0 -0.01103889 178.86871 -800 0 
	-800 0 -32.124896 -132.40305 -800 0 -0.026297252 173.86822 
16.24 -1.5639009 92.785028 -800 0 -39.902112 -126.06543 -800 0 
	-800 0 -1.4639491 90.744036 -800 0 -32.11541 -132.56173 
	-39.902112 -126.06543 -800 0 -0.011042849 178.86678 -800 0 
	-800 0 -32.11541 -132.56173 -800 0 -0.026367043 173.85476 
16.25 -1.5667438 92.439635 -800 0 -39.899236 -126.22537 -800 0 
	-800 0 -1.466635 90.417641 -800 0 -32.105817 -132.71996 
	-39.899236 -126.22537 -800 0 -0.011046654 178.86485 -800 0 
	-800 0 -32.105817 -132.71996 -800 0 -0.026436236 173.84125 
16.26 -1.5695647 92.093852 -800 0 -39.895802 -126.38491 -800 0 
	-800 0 -1.4692998 90.091059 -800 0 -32.096117 -132.87772 
	-39.895802 -126.38491 -800 0 -0.011050289 178.86292 -800 0 
	-800 0 -32.096117 -132.87772 -800 0 -0.02650482 173.82771 
16.27 -1.5723633 91.747665 -800 0 -39.891813 -126.5441 -800 0 
	-800 0 -1.4719441 89.764282 -800 0 -32.086312 -133.03501 
	-39.891813 -126.5441 -800 0 -0.01105374 178.86098 -800 0 
	-800 0 -32.086312 -133.03501 -800 0 -0.026572785 173.81413 
16.28 -1.5751398 91.401057 -800 0 -39.887267 -126.70297 -800 0 
	-800 0 -1.4745683 89.437303 -800 0 -32.076404 -133.19184 
	-39.887267 -126.70297 -800 0 -0.011056993 178.85904 -800 0 
	-800 0 -32.076404 -133.19184 -800 0 -0.026640123 173.8005 
16.29 -1.577894 91.054013 -800 0 -39.882164 -126.86157 -800 0 
	-800 0 -1.4771729 89.110113 -800 0 -32.066393 -133.34819 
	-39.882164 -126.86157 -800 0 -0.011060035 178.8571 -800 0 
	-800 0 -32.066393 -133.34819 -800 0 -0.026706821 173.78683 
16.3 -1.5806261 90.706516 -800 0 -39.876502 -127.01991 -800 0 
	-800 0 -1.4797584 88.782706 -800 0 -32.056282 -133.50407 
	-39.876502 -127.01991 -800 0 -0.011062857 178.85515 -800 0 
	-800 0 -32.056282 -133.50407 -800 0 -0.026772871 173.77311 
16.31 -1.5834092 90.357982 -800 0 -39.869556 -127.17899 -800 0 
	-800 0 -1.4829005 88.455448 -800 0 -32.049782 -133.64476 
	-39.869556 -127.17899 -800 0 -0.011068276 178.85323 -800 0 
	-800 0 -32.049782 -133.64476 -800 0 -0.026871238 173.75925 
16.32 -1.5861701 90.008957 -800 0 -39.862051 -127.33789 -800 0 
	-800 0 -1.4860223 88.127955 -800 0 -32.043179 -133.78522 
	-39.862051 -127.33789 -800 0 -0.011073474 178.8513 -800 0 
	-800 0 -32.043179 -133.78522 -800 0 -0.026969107 173.74534 
16.33 -1.5889095 89.659423 -800 0 -39.853984 -127.49663 -800 0 
	-800 0 -1.4891245 87.80022 -800 0 -32.036474 -133.92545 
	-39.853984 -127.49663 -800 0 -0.011078445 178.84936 -800 0 
	-800 0 -32.036474 -133.92545 -800 0 -0.027066472 173.73139 
16.34 -1.5916276 89.309366 -800 0 -39.845352 -127.65524 -800 0 
	-800 0 -1.4922079 87.472237 -800 0 -32.029668 -134.06542 
	-39.845352 -127.65524 -800 0 -0.01108318 178.84742 -800 0 
	-800 0 -32.029668 -134.06542 -800 0 -0.027163326 173.71738 
16.35 -1.5943251 88.95877 -800 0 -39.836151 -127.81375 -800 0 
	-800 0 -1.4952731 87.143998 -800 0 -32.022762 -134.20516 
	-39.836151 -127.81375 -800 0 -0.011087672 178.84548 -800 0 
	-800 0 -32.022762 -134.20516 -800 0 -0.027259666 173.70334 
16.36 -1.5970027 88.607619 -800 0 -39.826376 -127.97217 -800 0 
	-800 0 -1.498321 86.815497 -800 0 -32.015758 -134.34464 
	-39.826376 -127.97217 -800 0 -0.011091916 178.84353 -800 0 
	-800 0 -32.015758 -134.34464 -800 0 -0.027355484 173.68924 
16.37 -1.599661 88.255899 -800 0 -39.816024 -128.13053 -800 0 
	-800 0 -1.5013521 86.486726 -800 0 -32.008655 -134.48386 
	-39.816024 -128.13053 -800 0 -0.011095907 178.84158 -800 0 
	-800 0 -32.008655 -134.48386 -800 0 -0.027450777 173.6751 
16.38 -1.6023008 87.903593 -800 0 -39.805089 -128.28885 -800 0 
	-800 0 -1.5043673 86.15768 -800 0 -32.001456 -134.62283 
	-39.805089 -128.28885 -800 0 -0.011099637 178.83963 -800 0 
	-800 0 -32.001456 -134.62283 -800 0 -0.027545541 173.66091 
16.39 -1.6049231 87.550687 -800 0 -39.793567 -128.44715 -800 0 
	-800 0 -1.5073674 85.828353 -800 0 -31.99416 -134.76152 
	-39.793567 -128.44715 -800 0 -0.011103104 178.83767 -800 0 
	-800 0 -31.99416 -134.76152 -800 0 -0.027639772 173.64668 
16.4 -1.6075287 87.197167 -800 0 -39.781451 -128.60546 -800 0 
	-800 0 -1.5103531 85.498736 -800 0 -31.98677 -134.89996 
	-39.781451 -128.60546 -800 0 -0.011106301 178.8357 -800 0 
	-800 0 -31.98677 -134.89996 -800 0 -0.027733468 173.6324 
16.41 -1.61016 86.84239 -800 0 -39.76778 -128.76155 -800 0 
	-800 0 -1.5135397 85.166937 -800 0 -31.977996 -135.05139 
	-39.76778 -128.76155 -800 0 -0.011110956 178.83375 -800 0 
	-800 0 -31.977996 -135.05139 -800 0 -0.027829331 173.61815 
16.42 -1.6127752 86.486961 -800 0 -39.75351 -128.91763 -800 0 
	-800 0 -1.5167107 84.834831 -800 0 -31.969116 -135.20249 
	-39.75351 -128.91763 -800 0 -0.011115336 178.8318 -800 0 
	-800 0 -31.969116 -135.20249 -800 0 -0.027924678 173.60385 
16.43 -1.6153755 86.130867 -800 0 -39.738633 -129.07371 -800 0 
	-800 0 -1.5198669 84.502413 -800 0 -31.960133 -135.35324 
	-39.738633 -129.07371 -800 0 -0.011119439 178.82984 -800 0 
	-800 0 -31.960133 -135.35324 -800 0 -0.028019499 173.58951 
16.44 -1.6179622 85.774093 -800 0 -39.723145 -129.22984 -800 0 
	-800 0 -1.523009 84.169679 -800 0 -31.951047 -135.50364 
	-39.723145 -129.22984 -800 0 -0.01112326 178.82787 -800 0 
	-800 0 -31.951047 -135.50364 -800 0 -0.028113782 173.57512 
16.45 -1.6205367 85.416627 -800 0 -39.707039 -129.38603 -800 0 
	-800 0 -1.5261381 83.836623 -800 0 -31.941859 -135.65368 
	-39.707039 -129.38603 -800 0 -0.011126796 178.8259 -800 0 
	-800 0 -31.941859 -135.65368 -800 0 -0.028207515 173.56068 
16.46 -1.6231003 85.058458 -800 0 -39.690309 -129.5423 -800 0 
	-800 0 -1.529255 83.503241 -800 0 -31.932571 -135.80335 
	-39.690309 -129.5423 -800 0 -0.011130045 178.82392 -800 0 
	-800 0 -31.932571 -135.80335 -800 0 -0.028300687 173.54619 
16.47 -1.6256547 84.699573 -800 0 -39.672949 -129.6987 -800 0 
	-800 0 -1.5323604 83.169527 -800 0 -31.923183 -135.95264 
	-39.672949 -129.6987 -800 0 -0.011133003 178.82194 -800 0 
	-800 0 -31.923183 -135.95264 -800 0 -0.028393287 173.53165 
16.48 -1.6282014 84.339963 -800 0 -39.654953 -129.85525 -800 0 
	-800 0 -1.5354554 82.835478 -800 0 -31.913697 -136.10155 
	-39.654953 -129.85525 -800 0 -0.011135668 178.81995 -800 0 
	-800 0 -31.913697 -136.10155 -800 0 -0.028485302 173.51706 
16.49 -1.6307421 83.979617 -800 0 -39.636316 -130.01198 -800 0 
	-800 0 -1.5385407 82.50109 -800 0 -31.904112 -136.25007 
	-39.636316 -130.01198 -800 0 -0.011138038 178.81795 -800 0 
	-800 0 -31.904112 -136.25007 -800 0 -0.028576721 173.50242 
16.5 -1.6332785 83.618527 -800 0 -39.617032 -130.16893 -800 0 
	-800 0 -1.5416174 82.166358 -800 0 -31.894432 -136.39819 
	-39.617032 -130.16893 -800 0 -0.011140111 178.81595 -800 0 
	-800 0 -31.894432 -136.39819 -800 0 -0.028667532 173.48773 
16.51 -1.6358507 83.255832 -800 0 -39.596004 -130.32465 -800 0 
	-800 0 -1.5447974 81.830645 -800 0 -31.884119 -136.55299 
	-39.596004 -130.32465 -800 0 -0.011144416 178.81396 -800 0 
	-800 0 -31.884119 -136.55299 -800 0 -0.028773284 173.47305 
16.52 -1.6384206 82.892368 -800 0 -39.574318 -130.48062 -800 0 
	-800 0 -1.5479696 81.494575 -800 0 -31.873704 -136.70739 
	-39.574318 -130.48062 -800 0 -0.011148435 178.81197 -800 0 
	-800 0 -31.873704 -136.70739 -800 0 -0.028878615 173.45831 
16.53 -1.6409901 82.52813 -800 0 -39.551969 -130.63689 -800 0 
	-800 0 -1.5511348 81.158144 -800 0 -31.863186 -136.86139 
	-39.551969 -130.63689 -800 0 -0.01115217 178.80996 -800 0 
	-800 0 -31.863186 -136.86139 -800 0 -0.028983513 173.44353 
16.54 -1.6435611 82.163117 -800 0 -39.528954 -130.79349 -800 0 
	-800 0 -1.5542939 80.821349 -800 0 -31.852567 -137.01497 
	-39.528954 -130.79349 -800 0 -0.011155618 178.80795 -800 0 
	-800 0 -31.852567 -137.01497 -800 0 -0.029087966 173.42869 
16.55 -1.6461354 81.797326 -800 0 -39.505268 -130.95045 -800 0 
	-800 0 -1.5574477 80.484189 -800 0 -31.841848 -137.16813 
	-39.505268 -130.95045 -800 0 -0.01115878 178.80594 -800 0 
	-800 0 -31.841848 -137.16813 -800 0 -0.029191964 173.4138 
16.56 -1.648715 81.43076 -800 0 -39.480909 -131.1078 -800 0 
	-800 0 -1.5605971 80.146661 -800 0 -31.83103 -137.32086 
	-39.480909 -131.1078 -800 0 -0.011161655 178.80391 -800 0 
	-800 0 -31.83103 -137.32086 -800 0 -0.029295494 173.39886 
16.57 -1.6513015 81.063422 -800 0 -39.455876 -131.26559 -800 0 
	-800 0 -1.563743 79.808764 -800 0 -31.820114 -137.47316 
	-39.455876 -131.26559 -800 0 -0.011164244 178.80188 -800 0 
	-800 0 -31.820114 -137.47316 -800 0 -0.029398547 173.38386 
16.58 -1.6538967 80.695317 -800 0 -39.430165 -131.42385 -800 0 
	-800 0 -1.5668863 79.470495 -800 0 -31.8091 -137.62501 
	-39.430165 -131.42385 -800 0 -0.011166547 178.79984 -800 0 
	-800 0 -31.8091 -137.62501 -800 0 -0.029501108 173.36881 
16.59 -1.656502 80.326454 -800 0 -39.403778 -131.5826 -800 0 
	-800 0 -1.5700277 79.131854 -800 0 -31.79799 -137.77641 
	-39.403778 -131.5826 -800 0 -0.011168564 178.79779 -800 0 
	-800 0 -31.79799 -137.77641 -800 0 -0.029603167 173.35371 
16.6 -1.6591185 79.956845 -800 0 -39.376715 -131.74186 -800 0 
	-800 0 -1.5731681 78.792839 -800 0 -31.786785 -137.92735 
	-39.376715 -131.74186 -800 0 -0.011170295 178.79573 -800 0 
	-800 0 -31.786785 -137.92735 -800 0 -0.029704711 173.33856 
16.61 -1.6618089 79.585419 -800 0 -39.34789 -131.90345 -800 0 
	-800 0 -1.5765029 78.451667 -800 0 -31.775481 -138.08571 
	-39.34789 -131.90345 -800 0 -0.011175747 178.79368 -800 0 
	-800 0 -31.775481 -138.08571 -800 0 -0.029810675 173.32339 
16.62 -1.6645111 79.213265 -800 0 -39.318387 -132.06564 -800 0 
	-800 0 -1.5798363 78.110119 -800 0 -31.764078 -138.2436 
	-39.318387 -132.06564 -800 0 -0.011180965 178.79163 -800 0 
	-800 0 -31.764078 -138.2436 -800 0 -0.029916183 173.30816 
16.63 -1.6672249 78.8404 -800 0 -39.288209 -132.22845 -800 0 
	-800 0 -1.583169 77.768197 -800 0 -31.752577 -138.40103 
	-39.288209 -132.22845 -800 0 -0.011185949 178.78956 -800 0 
	-800 0 -31.752577 -138.40103 -800 0 -0.030021216 173.29289 
16.64 -1.6699495 78.466849 -800 0 -39.257358 -132.39185 -800 0 
	-800 0 -1.586502 77.425902 -800 0 -31.740982 -138.55797 
	-39.257358 -132.39185 -800 0 -0.011190702 178.78749 -800 0 
	-800 0 -31.740982 -138.55797 -800 0 -0.030125748 173.27755 
16.65 -1.6726834 78.092635 -800 0 -39.22584 -132.55582 -800 0 
	-800 0 -1.5898361 77.083235 -800 0 -31.729293 -138.71442 
	-39.22584 -132.55582 -800 0 -0.011195223 178.7854 -800 0 
	-800 0 -31.729293 -138.71442 -800 0 -0.030229753 173.26217 
16.66 -1.675424 77.717785 -800 0 -39.193658 -132.72032 -800 0 
	-800 0 -1.593172 76.7402 -800 0 -31.717516 -138.87037 
	-39.193658 -132.72032 -800 0 -0.011199513 178.78331 -800 0 
	-800 0 -31.717516 -138.87037 -800 0 -0.030333196 173.24672 
16.67 -1.6781678 77.342325 -800 0 -39.160818 -132.8853 -800 0 
	-800 0 -1.5965106 76.3968 -800 0 -31.705652 -139.02578 
	-39.160818 -132.8853 -800 0 -0.011203571 178.7812 -800 0 
	-800 0 -31.705652 -139.02578 -800 0 -0.030436034 173.23123 
16.68 -1.6809103 76.966283 -800 0 -39.127322 -133.05067 -800 0 
	-800 0 -1.5998526 76.053039 -800 0 -31.693707 -139.18065 
	-39.127322 -133.05067 -800 0 -0.011207395 178.77909 -800 0 
	-800 0 -31.693707 -139.18065 -800 0 -0.030538215 173.21567 
16.69 -1.6836454 76.589683 -800 0 -39.093174 -133.21632 -800 0 
	-800 0 -1.603199 75.708923 -800 0 -31.681687 -139.33494 
	-39.093174 -133.21632 -800 0 -0.01121098 178.77696 -800 0 
	-800 0 -31.681687 -139.33494 -800 0 -0.030639666 173.20007 
16.7 -1.6863661 76.212547 -800 0 -39.058373 -133.38215 -800 0 
	-800 0 -1.6065503 75.36446 -800 0 -31.669599 -139.48861 
	-39.058373 -133.38215 -800 0 -0.011214322 178.77482 -800 0 
	-800 0 -31.669599 -139.48861 -800 0 -0.030740293 173.1844 
16.71 -1.6891532 75.833778 -800 0 -39.022073 -133.55144 -800 0 
	-800 0 -1.6100005 75.019577 -800 0 -31.656325 -139.63972 
	-39.022073 -133.55144 -800 0 -0.011221682 178.77269 -800 0 
	-800 0 -31.656325 -139.63972 -800 0 -0.030845455 173.16861 
16.72 -1.6919081 75.454485 -800 0 -38.985111 -133.72068 -800 0 
	-800 0 -1.6134529 74.674362 -800 0 -31.642965 -139.7899 
	-38.985111 -133.72068 -800 0 -0.011228855 178.77055 -800 0 
	-800 0 -31.642965 -139.7899 -800 0 -0.030949566 173.15275 
16.73 -1.6946203 75.074671 -800 0 -38.947475 -133.88968 -800 0 
	-800 0 -1.6169063 74.328825 -800 0 -31.629513 -139.93902 
	-38.947475 -133.88968 -800 0 -0.011235834 178.7684 -800 0 
	-800 0 -31.629513 -139.93902 -800 0 -0.031052557 173.13684 
16.74 -1.6972785 74.694326 -800 0 -38.909151 -134.05825 -800 0 
	-800 0 -1.6203588 73.982978 -800 0 -31.615948 -140.08695 
	-38.909151 -134.05825 -800 0 -0.011242611 178.76623 -800 0 
	-800 0 -31.615948 -140.08695 -800 0 -0.031154413 173.12086 
16.75 -1.6998707 74.313431 -800 0 -38.870119 -134.2262 -800 0 
	-800 0 -1.6238072 73.636824 -800 0 -31.60224 -140.23357 
	-38.870119 -134.2262 -800 0 -0.011249177 178.76405 -800 0 
	-800 0 -31.60224 -140.23357 -800 0 -0.03125524 173.10481 
16.76 -1.7023851 73.931953 -800 0 -38.830351 -134.39333 -800 0 
	-800 0 -1.6272479 73.290358 -800 0 -31.588339 -140.37886 
	-38.830351 -134.39333 -800 0 -0.011255521 178.76186 -800 0 
	-800 0 -31.588339 -140.37886 -800 0 -0.03135534 173.0887 
16.77 -1.7048098 73.549846 -800 0 -38.789815 -134.55945 -800 0 
	-800 0 -1.6306776 72.943557 -800 0 -31.57419 -140.523 
	-38.789815 -134.55945 -800 0 -0.011261631 178.75966 -800 0 
	-800 0 -31.57419 -140.523 -800 0 -0.031455241 173.07251 
16.78 -1.7071338 73.167056 -800 0 -38.748474 -134.72438 -800 0 
	-800 0 -1.6340959 72.596384 -800 0 -31.559753 -140.66639 
	-38.748474 -134.72438 -800 0 -0.011267498 178.75743 -800 0 
	-800 0 -31.559753 -140.66639 -800 0 -0.031555591 173.05626 
16.79 -1.7093471 72.783513 -800 0 -38.706284 -134.88798 -800 0 
	-800 0 -1.6375061 72.248804 -800 0 -31.545028 -140.80957 
	-38.706284 -134.88798 -800 0 -0.011273111 178.7552 -800 0 
	-800 0 -31.545028 -140.80957 -800 0 -0.031656889 173.03994 
16.8 -1.711441 72.399144 -800 0 -38.663196 -135.05013 -800 0 
	-800 0 -1.640915 71.900806 -800 0 -31.530063 -140.953 
	-38.663196 -135.05013 -800 0 -0.01127846 178.75295 -800 0 
	-800 0 -31.530063 -140.953 -800 0 -0.031759222 173.02356 
16.81 -1.7135432 72.012752 -800 0 -38.618673 -135.21631 -800 0 
	-800 0 -1.6443967 71.550797 -800 0 -31.514974 -141.09363 
	-38.618673 -135.21631 -800 0 -0.011288247 178.7507 -800 0 
	-800 0 -31.514974 -141.09363 -800 0 -0.031859824 173.00717 
16.82 -1.7155154 71.62535 -800 0 -38.573149 -135.38101 -800 0 
	-800 0 -1.647888 71.20047 -800 0 -31.499816 -141.23423 
	-38.573149 -135.38101 -800 0 -0.01129787 178.74843 -800 0 
	-800 0 -31.499816 -141.23423 -800 0 -0.03196007 172.99072 
16.83 -1.7173541 71.236853 -800 0 -38.526569 -135.54421 -800 0 
	-800 0 -1.6513868 70.849864 -800 0 -31.484605 -141.37457 
	-38.526569 -135.54421 -800 0 -0.011307332 178.74615 -800 0 
	-800 0 -31.484605 -141.37457 -800 0 -0.03205966 172.9742 
16.84 -1.7190572 70.847179 -800 0 -38.478877 -135.70593 -800 0 
	-800 0 -1.65489 70.49901 -800 0 -31.469336 -141.51444 
	-38.478877 -135.70593 -800 0 -0.011316641 178.74385 -800 0 
	-800 0 -31.469336 -141.51444 -800 0 -0.032158413 172.95763 
16.85 -1.7206241 70.456251 -800 0 -38.430019 -135.86625 -800 0 
	-800 0 -1.6583942 70.147931 -800 0 -31.454 -141.65372 
	-38.430019 -135.86625 -800 0 -0.01132581 178.74153 -800 0 
	-800 0 -31.454 -141.65372 -800 0 -0.032256235 172.941 
16.86 -1.7220551 70.064 -800 0 -38.379942 -136.02523 -800 0 
	-800 0 -1.6618961 69.796649 -800 0 -31.438584 -141.79233 
	-38.379942 -136.02523 -800 0 -0.011334852 178.73919 -800 0 
	-800 0 -31.438584 -141.79233 -800 0 -0.032353085 172.92431 
16.87 -1.7233512 69.670367 -800 0 -38.328596 -136.18299 -800 0 
	-800 0 -1.6653921 69.44518 -800 0 -31.423076 -141.93023 
	-38.328596 -136.18299 -800 0 -0.011343787 178.73682 -800 0 
	-800 0 -31.423076 -141.93023 -800 0 -0.03244895 172.90755 
16.88 -1.7245133 69.275301 -800 0 -38.275932 -136.33964 -800 0 
	-800 0 -1.6688787 69.093544 -800 0 -31.407465 -142.06741 
	-38.275932 -136.33964 -800 0 -0.011352637 178.73443 -800 0 
	-800 0 -31.407465 -142.06741 -800 0 -0.032543828 172.89073 
16.89 -1.7255422 68.878762 -800 0 -38.221903 -136.49532 -800 0 
	-800 0 -1.672352 68.741761 -800 0 -31.391742 -142.20386 
	-38.221903 -136.49532 -800 0 -0.011361428 178.73202 -800 0 
	-800 0 -31.391742 -142.20386 -800 0 -0.032637722 172.87384 
16.9 -1.7264379 68.480721 -800 0 -38.166463 -136.65017 -800 0 
	-800 0 -1.6758074 68.389854 -800 0 -31.375896 -142.33959 
	-38.166463 -136.65017 -800 0 -0.01137019 178.72958 -800 0 
	-800 0 -31.375896 -142.33959 -800 0 -0.032730634 172.85689 
16.91 -1.7273899 68.079989 -800 0 -38.109398 -136.81199 -800 0 
	-800 0 -1.6792714 68.037405 -800 0 -31.359861 -142.48771 
	-38.109398 -136.81199 -800 0 -0.0113845 178.72714 -800 0 
	-800 0 -31.359861 -142.48771 -800 0 -0.032896184 172.83989 
16.92 -1.728209 67.677698 -800 0 -38.050839 -136.97338 -800 0 
	-800 0 -1.6827044 67.684877 -800 0 -31.343649 -142.63509 
	-38.050839 -136.97338 -800 0 -0.011399074 178.72467 -800 0 
	-800 0 -31.343649 -142.63509 -800 0 -0.033061207 172.82282 
16.93 -1.7288905 67.273839 -800 0 -37.990742 -137.13448 -800 0 
	-800 0 -1.6860991 67.332295 -800 0 -31.327252 -142.78181 
	-37.990742 -137.13448 -800 0 -0.011413983 178.72217 -800 0 
	-800 0 -31.327252 -142.78181 -800 0 -0.033225774 172.80568 
16.94 -1.7294274 66.868408 -800 0 -37.929062 -137.29543 -800 0 
	-800 0 -1.6894471 66.979687 -800 0 -31.310661 -142.92795 
	-37.929062 -137.29543 -800 0 -0.011429305 178.71964 -800 0 
	-800 0 -31.310661 -142.92795 -800 0 -0.033389934 172.78846 
16.95 -1.7298096 66.461402 -800 0 -37.865751 -137.45637 -800 0 
	-800 0 -1.6927376 66.62708 -800 0 -31.293866 -143.07358 
	-37.865751 -137.45637 -800 0 -0.011445132 178.71707 -800 0 
	-800 0 -31.293866 -143.07358 -800 0 -0.033553723 172.77117 
16.96 -1.730024 66.052818 -800 0 -37.800759 -137.61745 -800 0 
	-800 0 -1.6959576 66.274501 -800 0 -31.276858 -143.21882 
	-37.800759 -137.61745 -800 0 -0.011461573 178.71447 -800 0 
	-800 0 -31.276858 -143.21882 -800 0 -0.033717162 172.75381 
16.97 -1.7300533 65.642646 -800 0 -37.734032 -137.77883 -800 0 
	-800 0 -1.6990914 65.921973 -800 0 -31.259626 -143.36377 
	-37.734032 -137.77883 -800 0 -0.011478752 178.71183 -800 0 
	-800 0 -31.259626 -143.36377 -800 0 -0.033880262 172.73638 
16.98 -1.7298762 65.230868 -800 0 -37.665512 -137.9407 -800 0 
	-800 0 -1.7021198 65.569513 -800 0 -31.24216 -143.50856 
	-37.665512 -137.9407 -800 0 -0.011496816 178.70915 -800 0 
	-800 0 -31.24216 -143.50856 -800 0 -0.034043026 172.71887 
16.99 -1.729466 64.817448 -800 0 -37.595137 -138.10326 -800 0 
	-800 0 -1.7050195 65.217123 -800 0 -31.224451 -143.65337 
	-37.595137 -138.10326 -800 0 -0.011515942 178.70643 -800 0 
	-800 0 -31.224451 -143.65337 -800 0 -0.034205444 172.70129 
17 -1.7287908 64.402327 -800 0 -37.522843 -138.26676 -800 0 
	-800 0 -1.7077627 64.864789 -800 0 -31.20649 -143.7984 
	-37.522843 -138.26676 -800 0 -0.011536337 178.70365 -800 0 
	-800 0 -31.20649 -143.7984 -800 0 -0.034367497 172.68364 
17.01 -1.7280467 63.98382 -800 0 -37.448269 -138.44029 -800 0 
	-800 0 -1.7104744 64.510491 -800 0 -31.186914 -143.96508 
	-37.448269 -138.44029 -800 0 -0.011565599 178.70085 -800 0 
	-800 0 -31.186914 -143.96508 -800 0 -0.034513715 172.66605 
17.02 -1.7269614 63.563325 -800 0 -37.371639 -138.61554 -800 0 
	-800 0 -1.7129552 64.156102 -800 0 -31.167069 -144.1325 
	-37.371639 -138.61554 -800 0 -0.011597333 178.698 -800 0 
	-800 0 -31.167069 -144.1325 -800 0 -0.034659601 172.64839 
17.03 -1.7254851 63.14061 -800 0 -37.292881 -138.79295 -800 0 
	-800 0 -1.7151606 63.801467 -800 0 -31.146965 -144.30103 
	-37.292881 -138.79295 -800 0 -0.011632049 178.69509 -800 0 
	-800 0 -31.146965 -144.30103 -800 0 -0.034805087 172.63066 
17.04 -1.7235635 62.715339 -800 0 -37.211923 -138.97307 -800 0 
	-800 0 -1.7170413 63.446341 -800 0 -31.126621 -144.4711 
	-37.211923 -138.97307 -800 0 -0.011670379 178.69211 -800 0 
	-800 0 -31.126621 -144.4711 -800 0 -0.034950085 172.61286 
17.05 -1.7211418 62.287033 -800 0 -37.128704 -139.15652 -800 0 
	-800 0 -1.7185462 63.090355 -800 0 -31.106076 -144.64323 
	-37.128704 -139.15652 -800 0 -0.011713116 178.68906 -800 0 
	-800 0 -31.106076 -144.64323 -800 0 -0.035094486 172.59498 
17.06 -1.7181709 61.855043 -800 0 -37.043173 -139.34402 -800 0 
	-800 0 -1.7196274 62.732979 -800 0 -31.085399 -144.81795 
	-37.043173 -139.34402 -800 0 -0.01176126 178.68594 -800 0 
	-800 0 -31.085399 -144.81795 -800 0 -0.035238154 172.57703 
17.07 -1.7146183 61.418516 -800 0 -36.955301 -139.53632 -800 0 
	-800 0 -1.7202496 62.373494 -800 0 -31.06469 -144.9958 
	-36.955301 -139.53632 -800 0 -0.011816088 178.68273 -800 0 
	-800 0 -31.06469 -144.9958 -800 0 -0.035380929 172.559 
17.08 -1.7104836 60.9764 -800 0 -36.86508 -139.73414 -800 0 
	-800 0 -1.7204037 62.010976 -800 0 -31.044096 -145.17722 
	-36.86508 -139.73414 -800 0 -0.011879242 178.67943 -800 0 
	-800 0 -31.044096 -145.17722 -800 0 -0.035522635 172.5409 
17.09 -1.7058178 60.527491 -800 0 -36.772518 -139.93805 -800 0 
	-800 0 -1.7201257 61.644322 -800 0 -31.02381 -145.36239 
	-36.772518 -139.93805 -800 0 -0.011952859 178.67604 -800 0 
	-800 0 -31.02381 -145.36239 -800 0 -0.03566309 172.52273 
17.1 -1.7007419 60.070571 -800 0 -36.677626 -140.14838 -800 0 
	-800 0 -1.7195165 61.272355 -800 0 -31.004065 -145.5511 
	-36.677626 -140.14838 -800 0 -0.012039738 178.67253 -800 0 
	-800 0 -31.004065 -145.5511 -800 0 -0.035802144 172.50447 
17.11 -1.6957063 59.602444 -800 0 -36.579607 -140.37556 -800 0 
	-800 0 -1.7190635 60.892292 -800 0 -30.98513 -145.73501 
	-36.579607 -140.37556 -800 0 -0.012158921 178.66895 -800 0 
	-800 0 -30.98513 -145.73501 -800 0 -0.035902981 172.48586 
17.12 -1.6907379 59.124738 -800 0 -36.479081 -140.60992 -800 0 
	-800 0 -1.7187167 60.505188 -800 0 -30.967196 -145.91993 
	-36.479081 -140.60992 -800 0 -0.012303204 178.66525 -800 0 
	-800 0 -30.967196 -145.91993 -800 0 -0.036001562 172.46717 
17.13 -1.6861369 58.637692 -800 0 -36.375802 -140.85195 -800 0 
	-800 0 -1.718789 60.111063 -800 0 -30.950391 -146.10366 
	-36.375802 -140.85195 -800 0 -0.012479694 178.66146 -800 0 
	-800 0 -30.950391 -146.10366 -800 0 -0.036098061 172.44839 
17.14 -1.6821707 58.142376 -800 0 -36.269391 -141.10332 -800 0 
	-800 0 -1.7195908 59.710804 -800 0 -30.934705 -146.28362 
	-36.269391 -141.10332 -800 0 -0.012697275 178.65758 -800 0 
	-800 0 -30.934705 -146.28362 -800 0 -0.036192793 172.42951 
17.15 -1.6790121 57.640492 -800 0 -36.159418 -141.36782 -800 0 
	-800 0 -1.7213627 59.306104 -800 0 -30.919964 -146.45741 
	-36.159418 -141.36782 -800 0 -0.012966491 178.65367 -800 0 
	-800 0 -30.919964 -146.45741 -800 0 -0.036286167 172.41055 
17.16 -1.6767037 57.133967 -800 0 -36.045602 -141.65226 -800 0 
	-800 0 -1.7242216 58.899145 -800 0 -30.905865 -146.62328 
	-36.045602 -141.65226 -800 0 -0.013298679 178.64981 -800 0 
	-800 0 -30.905865 -146.62328 -800 0 -0.036378594 172.3915 
17.17 -1.6751687 56.624481 -800 0 -35.92815 -141.96656 -800 0 
	-800 0 -1.7281448 58.492136 -800 0 -30.892042 -146.78044 
	-35.92815 -141.96656 -800 0 -0.013703572 178.64612 -800 0 
	-800 0 -30.892042 -146.78044 -800 0 -0.0364704 172.37235 
17.18 -1.6742597 56.113172 -800 0 -35.808183 -142.32248 -800 0 
	-800 0 -1.7329938 58.086899 -800 0 -30.878141 -146.92912 
	-35.808183 -142.32248 -800 0 -0.014184383 178.64282 -800 0 
	-800 0 -30.878141 -146.92912 -800 0 -0.036561769 172.35311 
17.19 -1.6738192 55.600611 -800 0 -35.688128 -142.72978 -800 0 
	-800 0 -1.7385642 57.684641 -800 0 -30.86388 -147.07023 
	-35.688128 -142.72978 -800 0 -0.014730029 178.64014 -800 0 
	-800 0 -30.86388 -147.07023 -800 0 -0.036652739 172.33379 
17.2 -1.6737215 55.087043 -800 0 -35.571696 -143.18963 -800 0 
	-800 0 -1.7446356 57.28594 -800 0 -30.849076 -147.20509 
	-35.571696 -143.18963 -800 0 -0.015306957 178.63834 -800 0 
	-800 0 -30.849076 -147.20509 -800 0 -0.03674323 172.31438 
17.21 -1.6741742 54.569978 -800 0 -35.464307 -143.70263 -800 0 
	-800 0 -1.75103 56.890252 -800 0 -30.833008 -147.35003 
	-35.464307 -143.70263 -800 0 -0.015852398 178.63789 -800 0 
	-800 0 -30.833008 -147.35003 -800 0 -0.036900794 172.29513 
17.22 -1.6747661 54.052714 -800 0 -35.367636 -144.21065 -800 0 
	-800 0 -1.7575638 56.497907 -800 0 -30.816259 -147.49153 
	-35.367636 -144.21065 -800 0 -0.016274152 178.63834 -800 0 
	-800 0 -30.816259 -147.49153 -800 0 -0.037058759 172.2758 
17.23 -1.6752977 53.535521 -800 0 -35.279884 -144.67505 -800 0 
	-800 0 -1.7641184 56.10846 -800 0 -30.798855 -147.6306 
	-35.279884 -144.67505 -800 0 -0.016521388 178.63927 -800 0 
	-800 0 -30.798855 -147.6306 -800 0 -0.037216952 172.25638 
17.24 -1.6755413 53.018094 -800 0 -35.196511 -145.07112 -800 0 
	-800 0 -1.7706131 55.7214 -800 0 -30.780846 -147.76802 
	-35.196511 -145.07112 -800 0 -0.016583737 178.64013 -800 0 
	-800 0 -30.780846 -147.76802 -800 0 -0.037375211 172.23687 
17.25 -1.6753044 52.499554 -800 0 -35.112289 -145.39388 -800 0 
	-800 0 -1.7769981 55.336229 -800 0 -30.762293 -147.90435 
	-35.112289 -145.39388 -800 0 -0.016490744 178.64049 -800 0 
	-800 0 -30.762293 -147.90435 -800 0 -0.037533398 172.21728 
17.26 -1.6744636 51.978735 -800 0 -35.023023 -145.65381 -800 0 
	-800 0 -1.7832457 54.952495 -800 0 -30.743261 -148.03997 
	-35.023023 -145.65381 -800 0 -0.016294807 178.64007 -800 0 
	-800 0 -30.743261 -148.03997 -800 0 -0.037691395 172.1976 
17.27 -1.6729598 51.454469 -800 0 -34.926249 -145.86837 -800 0 
	-800 0 -1.7893434 54.569812 -800 0 -30.723808 -148.17511 
	-34.926249 -145.86837 -800 0 -0.016049302 178.63883 -800 0 
	-800 0 -30.723808 -148.17511 -800 0 -0.037849106 172.17782 
17.28 -1.6707758 50.925737 -800 0 -34.82103 -146.05495 -800 0 
	-800 0 -1.7952891 54.187855 -800 0 -30.703987 -148.30991 
	-34.82103 -146.05495 -800 0 -0.015794817 178.63684 -800 0 
	-800 0 -30.703987 -148.30991 -800 0 -0.03800645 172.15796 
17.29 -1.6679133 50.391694 -800 0 -34.707391 -146.22733 -800 0 
	-800 0 -1.8010869 53.806361 -800 0 -30.683845 -148.44444 
	-34.707391 -146.22733 -800 0 -0.015556259 178.63422 -800 0 
	-800 0 -30.683845 -148.44444 -800 0 -0.03816336 172.13801 
17.3 -1.6643782 49.851638 -800 0 -34.585803 -146.39507 -800 0 
	-800 0 -1.8067445 53.425116 -800 0 -30.663421 -148.57873 
	-34.585803 -146.39507 -800 0 -0.015346044 178.63111 -800 0 
	-800 0 -30.663421 -148.57873 -800 0 -0.038319781 172.11797 
17.31 -1.6604787 49.300871 -800 0 -34.45426 -146.57677 -800 0 
	-800 0 -1.812446 53.042937 -800 0 -30.642691 -148.72454 
	-34.45426 -146.57677 -800 0 -0.015166822 178.62754 -800 0 
	-800 0 -30.642691 -148.72454 -800 0 -0.03851093 172.09789 
17.32 -1.6559366 48.742621 -800 0 -34.315826 -146.76705 -800 0 
	-800 0 -1.8180252 52.66069 -800 0 -30.621721 -148.87016 
	-34.315826 -146.76705 -800 0 -0.015026919 178.62368 -800 0 
	-800 0 -30.621721 -148.87016 -800 0 -0.038702149 172.07772 
17.33 -1.6507438 48.176343 -800 0 -34.170998 -146.96718 -800 0 
	-800 0 -1.823492 52.278268 -800 0 -30.600533 -149.01555 
	-34.170998 -146.96718 -800 0 -0.014922287 178.61959 -800 0 
	-800 0 -30.600533 -149.01555 -800 0 -0.038893409 172.05745 
17.34 -1.6448844 47.601478 -800 0 -34.020097 -147.17764 -800 0 
	-800 0 -1.8288562 51.895585 -800 0 -30.579146 -149.16067 
	-34.020097 -147.17764 -800 0 -0.014848802 178.61531 -800 0 
	-800 0 -30.579146 -149.16067 -800 0 -0.039084682 172.03708 
17.35 -1.6383358 47.017439 -800 0 -33.863303 -147.39847 -800 0 
	-800 0 -1.8341267 51.512573 -800 0 -30.557576 -149.30547 
	-33.863303 -147.39847 -800 0 -0.014802783 178.61086 -800 0 
	-800 0 -30.557576 -149.30547 -800 0 -0.039275943 172.01661 
17.36 -1.6310689 46.423598 -800 0 -33.700687 -147.62957 -800 0 
	-800 0 -1.8393119 51.129179 -800 0 -30.535836 -149.44991 
	-33.700687 -147.62957 -800 0 -0.014781166 178.60625 -800 0 
	-800 0 -30.535836 -149.44991 -800 0 -0.039467171 171.99605 
17.37 -1.6230484 45.819275 -800 0 -33.532228 -147.87083 -800 0 
	-800 0 -1.8444193 50.74536 -800 0 -30.513936 -149.59393 
	-33.532228 -147.87083 -800 0 -0.014781514 178.60149 -800 0 
	-800 0 -30.513936 -149.59393 -800 0 -0.039658342 171.97539 
17.38 -1.6142329 45.203731 -800 0 -33.357836 -148.12213 -800 0 
	-800 0 -1.8494556 50.361082 -800 0 -30.491887 -149.73749 
	-33.357836 -148.12213 -800 0 -0.014801971 178.59657 -800 0 
	-800 0 -30.491887 -149.73749 -800 0 -0.039849435 171.95462 
17.39 -1.6045745 44.576156 -800 0 -33.177359 -148.38347 -800 0 
	-800 0 -1.854427 49.976317 -800 0 -30.469695 -149.88056 
	-33.177359 -148.38347 -800 0 -0.0148412 178.59148 -800 0 
	-800 0 -30.469695 -149.88056 -800 0 -0.040040428 171.93376 
17.4 -1.5940187 43.935659 -800 0 -32.990597 -148.65491 -800 0 
	-800 0 -1.8593388 49.591044 -800 0 -30.447368 -150.02308 
	-32.990597 -148.65491 -800 0 -0.01489832 178.58622 -800 0 
	-800 0 -30.447368 -150.02308 -800 0 -0.040231298 171.91279 
17.41 -1.5830509 43.274915 -800 0 -32.794799 -148.96433 -800 0 
	-800 0 -1.8642628 49.203327 -800 0 -30.423745 -150.15405 
	-32.794799 -148.96433 -800 0 -0.014988814 178.58075 -800 0 
	-800 0 -30.423745 -150.15405 -800 0 -0.040398138 171.89143 
17.42 -1.5711152 42.59866 -800 0 -32.592184 -149.28617 -800 0 
	-800 0 -1.869131 48.815079 -800 0 -30.399997 -150.28428 
	-32.592184 -149.28617 -800 0 -0.015098313 178.57508 -800 0 
	-800 0 -30.399997 -150.28428 -800 0 -0.040563945 171.86995 
17.43 -1.5581414 41.905619 -800 0 -32.382408 -149.62092 -800 0 
	-800 0 -1.8739475 48.426289 -800 0 -30.376131 -150.41371 
	-32.382408 -149.62092 -800 0 -0.01522714 178.5692 -800 0 
	-800 0 -30.376131 -150.41371 -800 0 -0.04072868 171.84838 
17.44 -1.5440506 41.194371 -800 0 -32.165086 -149.96922 -800 0 
	-800 0 -1.8787157 48.036947 -800 0 -30.352151 -150.54232 
	-32.165086 -149.96922 -800 0 -0.015376023 178.56309 -800 0 
	-800 0 -30.352151 -150.54232 -800 0 -0.0408923 171.82669 
17.45 -1.528755 40.463321 -800 0 -31.939793 -150.33192 -800 0 
	-800 0 -1.8834388 47.647045 -800 0 -30.32806 -150.67009 
	-31.939793 -150.33192 -800 0 -0.015546087 178.55672 -800 0 
	-800 0 -30.32806 -150.67009 -800 0 -0.041054764 171.80489 
17.46 -1.5121564 39.710678 -800 0 -31.706056 -150.71001 -800 0 
	-800 0 -1.8881195 47.256578 -800 0 -30.303863 -150.79698 
	-31.706056 -150.71001 -800 0 -0.01573887 178.55008 -800 0 
	-800 0 -30.303863 -150.79698 -800 0 -0.041216026 171.78298 
17.47 -1.4941448 38.93442 -800 0 -31.463352 -151.1047 -800 0 
	-800 0 -1.8927603 46.86554 -800 0 -30.279562 -150.92296 
	-31.463352 -151.1047 -800 0 -0.015956363 178.54312 -800 0 
	-800 0 -30.279562 -150.92296 -800 0 -0.041376044 171.76096 
17.48 -1.4745972 38.132257 -800 0 -31.211107 -151.51741 -800 0 
	-800 0 -1.8973636 46.473927 -800 0 -30.255161 -151.04801 
	-31.211107 -151.51741 -800 0 -0.016201058 178.53583 -800 0 
	-800 0 -30.255161 -151.04801 -800 0 -0.04153477 171.73883 
17.49 -1.4533756 37.301584 -800 0 -30.948686 -151.94982 -800 0 
	-800 0 -1.9019314 46.081736 -800 0 -30.230662 -151.17211 
	-30.948686 -151.94982 -800 0 -0.016476021 178.52816 -800 0 
	-800 0 -30.230662 -151.17211 -800 0 -0.041692159 171.71659 
17.5 -1.4303245 36.439429 -800 0 -30.675386 -152.40387 -800 0 
	-800 0 -1.9064656 45.688962 -800 0 -30.206069 -151.29523 
	-30.675386 -152.40387 -800 0 -0.016784996 178.52007 -800 0 
	-800 0 -30.206069 -151.29523 -800 0 -0.041848163 171.69423 
17.51 -1.4064032 35.531087 -800 0 -30.387694 -152.92255 -800 0 
	-800 0 -1.9112096 45.293358 -800 0 -30.18213 -151.46679 
	-30.387694 -152.92255 -800 0 -0.01715869 178.51151 -800 0 
	-800 0 -30.18213 -151.46679 -800 0 -0.042099107 171.67227 
17.52 -1.3804445 34.58256 -800 0 -30.087415 -153.47108 -800 0 
	-800 0 -1.9159236 44.897131 -800 0 -30.158053 -151.63758 
	-30.087415 -153.47108 -800 0 -0.017580192 178.50244 -800 0 
	-800 0 -30.158053 -151.63758 -800 0 -0.042351093 171.6502 
17.53 -1.3522543 33.589079 -800 0 -29.773588 -154.05296 -800 0 
	-800 0 -1.9206091 44.500277 -800 0 -30.133842 -151.8076 
	-29.773588 -154.05296 -800 0 -0.018056878 178.49279 -800 0 
	-800 0 -30.133842 -151.8076 -800 0 -0.042604118 171.62802 
17.54 -1.3216145 32.545082 -800 0 -29.445144 -154.67232 -800 0 
	-800 0 -1.9252672 44.102795 -800 0 -30.109497 -151.97682 
	-29.445144 -154.67232 -800 0 -0.018597742 178.48251 -800 0 
	-800 0 -30.109497 -151.97682 -800 0 -0.042858177 171.60571 
17.55 -1.2882791 31.444045 -800 0 -29.100888 -155.334 -800 0 
	-800 0 -1.929899 43.704683 -800 0 -30.085021 -152.14522 
	-29.100888 -155.334 -800 0 -0.019213797 178.47152 -800 0 
	-800 0 -30.085021 -152.14522 -800 0 -0.043113267 171.58329 
17.56 -1.2519701 30.278267 -800 0 -28.739475 -156.04371 -800 0 
	-800 0 -1.9345057 43.305938 -800 0 -30.060416 -152.31278 
	-28.739475 -156.04371 -800 0 -0.019918607 178.45973 -800 0 
	-800 0 -30.060416 -152.31278 -800 0 -0.043369384 171.56075 
17.57 -1.2123725 29.038587 -800 0 -28.359384 -156.80823 -800 0 
	-800 0 -1.939088 42.90656 -800 0 -30.035683 -152.47948 
	-28.359384 -156.80823 -800 0 -0.020728993 178.44703 -800 0 
	-800 0 -30.035683 -152.47948 -800 0 -0.043626523 171.53809 
17.58 -1.1691285 27.714006 -800 0 -27.958882 -157.63567 -800 0 
	-800 0 -1.9436471 42.506546 -800 0 -30.010825 -152.6453 
	-27.958882 -157.63567 -800 0 -0.021666009 178.43332 -800 0 
	-800 0 -30.010825 -152.6453 -800 0 -0.043884678 171.5153 
17.59 -1.121834 26.291194 -800 0 -27.535979 -158.53588 -800 0 
	-800 0 -1.9481836 42.105894 -800 0 -29.985841 -152.81022 
	-27.535979 -158.53588 -800 0 -0.022756321 178.41844 -800 0 
	-800 0 -29.985841 -152.81022 -800 0 -0.044143844 171.49239 
17.6 -1.0700391 24.75381 -800 0 -27.088373 -159.52108 -800 0 
	-800 0 -1.9526984 41.704604 -800 0 -29.960736 -152.97423 
	-27.088373 -159.52108 -800 0 -0.024034188 178.40224 -800 0 
	-800 0 -29.960736 -152.97423 -800 0 -0.044404014 171.46936 
17.61 -1.0164316 23.056948 -800 0 -26.610548 -160.67635 -800 0 
	-800 0 -1.9570315 41.304451 -800 0 -29.935044 -153.02228 
	-26.610548 -160.67635 -800 0 -0.025606336 178.38457 -800 0 
	-800 0 -29.935044 -153.02228 -800 0 -0.044364144 171.44531 
17.62 -0.9582119 21.194845 -800 0 -26.102411 -161.96226 -800 0 
	-800 0 -1.9613391 40.903746 -800 0 -29.909374 -153.06889 
	-26.102411 -161.96226 -800 0 -0.027486597 178.36522 -800 0 
	-800 0 -29.909374 -153.06889 -800 0 -0.044319348 171.42115 
17.63 -0.89523746 19.134688 -800 0 -25.56082 -163.40647 -800 0 
	-800 0 -1.9656223 40.502489 -800 0 -29.883729 -153.11406 
	-25.56082 -163.40647 -800 0 -0.029758624 178.34398 -800 0 
	-800 0 -29.883729 -153.11406 -800 0 -0.04426955 171.39686 
17.64 -0.82755717 16.834967 -800 0 -24.982353 -165.04375 -800 0 
	-800 0 -1.9698821 40.100681 -800 0 -29.85811 -153.15777 
	-24.982353 -165.04375 -800 0 -0.032533702 178.32065 -800 0 
	-800 0 -29.85811 -153.15777 -800 0 -0.044214671 171.37246 
17.65 -0.75555801 14.242401 -800 0 -24.363286 -166.91827 -800 0 
	-800 0 -1.9741193 39.698321 -800 0 -29.832522 -153.20001 
	-24.363286 -166.91827 -800 0 -0.035961402 178.29507 -800 0 
	-800 0 -29.832522 -153.20001 -800 0 -0.044154633 171.34794 
17.66 -0.68024464 11.287602 -800 0 -23.699654 -169.08722 -800 0 
	-800 0 -1.978335 39.29541 -800 0 -29.806965 -153.24078 
	-23.699654 -169.08722 -800 0 -0.040245016 178.26717 -800 0 
	-800 0 -29.806965 -153.24078 -800 0 -0.044089356 171.3233 
17.67 -0.60374839 7.878999 -800 0 -22.987492 -171.62584 -800 0 
	-800 0 -1.98253 38.891946 -800 0 -29.781443 -153.28006 
	-22.987492 -171.62584 -800 0 -0.045662992 178.23707 -800 0 
	-800 0 -29.781443 -153.28006 -800 0 -0.044018761 171.29853 
17.68 -0.53023937 3.8943856 -800 0 -22.223397 -174.63436 -800 0 
	-800 0 -1.9867054 38.48793 -800 0 -29.755959 -153.31783 
	-22.223397 -174.63436 -800 0 -0.052596646 178.20538 -800 0 
	-800 0 -29.755959 -153.31783 -800 0 -0.043942767 171.27365 
17.69 -0.46756625 -0.83066042 -800 0 -21.405699 -178.24698 -800 0 
	-800 0 -1.9908619 38.083363 -800 0 -29.730515 -153.3541 
	-21.405699 -178.24698 -800 0 -0.061560459 178.17357 -800 0 
	-800 0 -29.730515 -153.3541 -800 0 -0.043861292 171.24864 
17.7 -0.43021198 -6.5177881 -800 0 -20.53673 177.35727 -800 0 
	-800 0 -1.9950006 37.678243 -800 0 -29.705113 -153.38884 
	-20.53673 177.35727 -800 0 -0.073217956 178.14491 -800 0 
	-800 0 -29.705113 -153.38884 -800 0 -0.043774253 171.2235 
17.71 -0.46689768 -13.510469 -800 0 -19.637922 171.78413 -800 0 
	-800 0 -1.9995256 37.26635 -800 0 -29.67629 -153.53188 
	-19.637922 171.78413 -800 0 -0.08846958 178.12803 -800 0 
	-800 0 -29.67629 -153.53188 -800 0 -0.043954186 171.19869 
17.72 -0.6148659 -22.130733 -800 0 -18.733539 164.8939 -800 0 
	-800 0 -2.0040248 36.853807 -800 0 -29.647357 -153.67353 
	-18.733539 164.8939 -800 0 -0.10763969 178.13416 -800 0 
	-800 0 -29.647357 -153.67353 -800 0 -0.044132967 171.17374 
17.73 -0.96127444 -32.799262 -800 0 -17.880568 156.40615 -800 0 
	-800 0 -2.0084989 36.440615 -800 0 -29.618316 -153.81375 
	-17.880568 156.40615 -800 0 -0.13019621 178.18257 -800 0 
	-800 0 -29.618316 -153.81375 -800 0 -0.044310539 171.14865 
17.74 -1.6421755 -45.906261 -800 0 -17.172937 146.1676 -800 0 
	-800 0 -2.0129482 36.026775 -800 0 -29.589169 -153.95252 
	-17.172937 146.1676 -800 0 -0.15320431 178.29557 -800 0 
	-800 0 -29.589169 -153.95252 -800 0 -0.044486841 171.12341 
17.75 -2.8401513 -61.683394 -800 0 -16.733782 134.37607 -800 0 
	-800 0 -2.0173733 35.612285 -800 0 -29.559919 -154.08984 
	-16.733782 134.37607 -800 0 -0.17039771 178.48204 -800 0 
	-800 0 -29.559919 -154.08984 -800 0 -0.044661814 171.09802 
17.76 -4.7439069 -80.248931 -800 0 -16.670892 121.76075 -800 0 
	-800 0 -2.0217747 35.197149 -800 0 -29.530568 -154.22566 
	-16.670892 121.76075 -800 0 -0.17462052 178.71403 -800 0 
	-800 0 -29.530568 -154.22566 -800 0 -0.044835394 171.07249 
17.77 -7.4632647 -102.32977 -800 0 -17.011319 109.42431 -800 0 
	-800 0 -2.0261528 34.781364 -800 0 -29.501117 -154.35998 
	-17.011319 109.42431 -800 0 -0.16381782 178.93108 -800 0 
	-800 0 -29.501117 -154.35998 -800 0 -0.045007516 171.0468 
17.78 -10.823527 -130.99479 -800 0 -17.681583 98.335909 -800 0 
	-800 0 -2.0305081 34.364933 -800 0 -29.471569 -154.49276 
	-17.681583 98.335909 -800 0 -0.14315889 179.0844 -800 0 
	-800 0 -29.471569 -154.49276 -800 0 -0.045178114 171.02097 
17.79 -13.558979 -171.06353 -800 0 -18.558362 88.957417 -800 0 
	-800 0 -2.0348412 33.947856 -800 0 -29.441926 -154.624 
	-18.558362 88.957417 -800 0 -0.11996877 179.16552 -800 0 
	-800 0 -29.441926 -154.624 -800 0 -0.04534712 170.99498 
17.8 -13.502295 146.81801 -800 0 -19.529794 81.283958 -800 0 
	-800 0 -2.0391525 33.530133 -800 0 -29.412191 -154.75366 
	-19.529794 81.283958 -800 0 -0.098945233 179.19243 -800 0 
	-800 0 -29.412191 -154.75366 -800 0 -0.045514463 170.96883 
17.81 -11.860186 118.3754 -800 0 -20.540095 75.196153 -800 0 
	-800 0 -2.0435963 33.109058 -800 0 -29.381578 -154.91941 
	-20.540095 75.196153 -800 0 -0.081711533 179.18483 -800 0 
	-800 0 -29.381578 -154.91941 -800 0 -0.045854122 170.94255 
17.82 -10.240669 101.24084 -800 0 -21.520506 70.279773 -800 0 
	-800 0 -2.0480168 32.68731 -800 0 -29.3508 -155.08391 
	-21.520506 70.279773 -800 0 -0.068276066 179.16165 -800 0 
	-800 0 -29.3508 -155.08391 -800 0 -0.046195483 170.91609 
17.83 -8.9867974 90.049685 -800 0 -22.453221 66.268112 -800 0 
	-800 0 -2.0524143 32.26489 -800 0 -29.319858 -155.24714 
	-22.453221 66.268112 -800 0 -0.057925619 179.13211 -800 0 
	-800 0 -29.319858 -155.24714 -800 0 -0.046538532 170.88947 
17.84 -8.0422452 82.078171 -800 0 -23.332302 62.95202 -800 0 
	-800 0 -2.0567893 31.841797 -800 0 -29.288753 -155.40907 
	-23.332302 62.95202 -800 0 -0.049936921 179.10103 -800 0 
	-800 0 -29.288753 -155.40907 -800 0 -0.046883249 170.86268 
17.85 -7.3210121 76.029495 -800 0 -24.15779 60.173571 -800 0 
	-800 0 -2.061142 31.418033 -800 0 -29.257485 -155.56967 
	-24.15779 60.173571 -800 0 -0.043718785 179.07075 -800 0 
	-800 0 -29.257485 -155.56967 -800 0 -0.047229616 170.83571 
17.86 -6.7586709 71.228156 -800 0 -24.932486 57.814862 -800 0 
	-800 0 -2.0654729 30.993599 -800 0 -29.226056 -155.72892 
	-24.932486 57.814862 -800 0 -0.038823822 179.04229 -800 0 
	-800 0 -29.226056 -155.72892 -800 0 -0.047577613 170.80856 
17.87 -6.3111154 67.28777 -800 0 -25.660283 55.787752 -800 0 
	-800 0 -2.0697825 30.568495 -800 0 -29.194466 -155.88679 
	-25.660283 55.787752 -800 0 -0.034923075 179.01603 -800 0 
	-800 0 -29.194466 -155.88679 -800 0 -0.047927216 170.78124 
17.88 -5.9482906 63.969879 -800 0 -26.345332 54.025851 -800 0 
	-800 0 -2.074071 30.142722 -800 0 -29.162717 -156.04326 
	-26.345332 54.025851 -800 0 -0.031776504 178.99199 -800 0 
	-800 0 -29.162717 -156.04326 -800 0 -0.048278401 170.75373 
17.89 -5.649382 61.118349 -800 0 -26.991653 52.478628 -800 0 
	-800 0 -2.078339 29.716281 -800 0 -29.130809 -156.1983 
	-26.991653 52.478628 -800 0 -0.029208496 178.97006 -800 0 
	-800 0 -29.130809 -156.1983 -800 0 -0.048631143 170.72604 
17.9 -5.3996653 58.626106 -800 0 -27.602964 51.107178 -800 0 
	-800 0 -2.0825868 29.289174 -800 0 -29.098743 -156.35188 
	-27.602964 51.107178 -800 0 -0.027089588 178.95005 -800 0 
	-800 0 -29.098743 -156.35188 -800 0 -0.048985413 170.69817 
17.91 -5.1939432 56.386934 -800 0 -28.185569 49.963161 -800 0 
	-800 0 -2.0870245 28.86147 -800 0 -29.068588 -156.49541 
	-28.185569 49.963161 -800 0 -0.025380664 178.93159 -800 0 
	-800 0 -29.068588 -156.49541 -800 0 -0.049257416 170.67041 
17.92 -5.0174861 54.383637 -800 0 -28.738678 48.9316 -800 0 
	-800 0 -2.0914421 28.433102 -800 0 -29.038318 -156.63738 
	-28.738678 48.9316 -800 0 -0.02394115 178.91475 -800 0 
	-800 0 -29.038318 -156.63738 -800 0 -0.049529489 170.64248 
17.93 -4.8647891 52.571813 -800 0 -29.265143 47.99475 -800 0 
	-800 0 -2.09584 28.004072 -800 0 -29.007933 -156.77777 
	-29.265143 47.99475 -800 0 -0.022717704 178.89933 -800 0 
	-800 0 -29.007933 -156.77777 -800 0 -0.04980158 170.61437 
17.94 -4.7316192 50.917594 -800 0 -29.767458 47.138376 -800 0 
	-800 0 -2.1002187 27.574382 -800 0 -28.977436 -156.91654 
	-29.767458 47.138376 -800 0 -0.021669384 178.88516 -800 0 
	-800 0 -28.977436 -156.91654 -800 0 -0.050073636 170.58607 
17.95 -4.6146749 49.394667 -800 0 -30.247813 46.35094 -800 0 
	-800 0 -2.1045786 27.144031 -800 0 -28.946827 -157.05368 
	-30.247813 46.35094 -800 0 -0.020764402 178.87209 -800 0 
	-800 0 -28.946827 -157.05368 -800 0 -0.0503456 170.55758 
17.96 -4.5113474 47.982267 -800 0 -30.708132 45.623003 -800 0 
	-800 0 -2.1089203 26.713023 -800 0 -28.916108 -157.18915 
	-30.708132 45.623003 -800 0 -0.019977804 178.86 -800 0 
	-800 0 -28.916108 -157.18915 -800 0 -0.050617413 170.52891 
17.97 -4.4195509 46.66378 -800 0 -31.150113 44.946774 -800 0 
	-800 0 -2.1132443 26.28136 -800 0 -28.885281 -157.32293 
	-31.150113 44.946774 -800 0 -0.019289797 178.84877 -800 0 
	-800 0 -28.885281 -157.32293 -800 0 -0.050889014 170.50005 
17.98 -4.3375992 45.425746 -800 0 -31.57526 44.31577 -800 0 
	-800 0 -2.117551 25.849042 -800 0 -28.854346 -157.45499 
	-31.57526 44.31577 -800 0 -0.018684534 178.8383 -800 0 
	-800 0 -28.854346 -157.45499 -800 0 -0.051160339 170.47099 
17.99 -4.264116 44.257142 -800 0 -31.984905 43.724559 -800 0 
	-800 0 -2.121841 25.416071 -800 0 -28.823305 -157.58531 
	-31.984905 43.724559 -800 0 -0.018149215 178.82851 -800 0 
	-800 0 -28.823305 -157.58531 -800 0 -0.051431319 170.44174 
18 -4.1979673 43.148855 -800 0 -32.38024 43.168555 -800 0 
	-800 0 -2.1261147 24.98245 -800 0 -28.792159 -157.71385 
	-32.38024 43.168555 -800 0 -0.017673411 178.81933 -800 0 
	-800 0 -28.792159 -157.71385 -800 0 -0.051701885 170.41229 
18.01 -4.1412433 42.084378 -800 0 -32.760905 42.71376 -800 0 
	-800 0 -2.1305333 24.545857 -800 0 -28.758123 -157.85928 
	-32.760905 42.71376 -800 0 -0.017280751 178.8107 -800 0 
	-800 0 -28.758123 -157.85928 -800 0 -0.051992367 170.38226 
18.02 -4.0896352 41.067667 -800 0 -33.129201 42.281621 -800 0 
	-800 0 -2.13493 24.108589 -800 0 -28.723934 -158.00269 
	-33.129201 42.281621 -800 0 -0.016927387 178.80257 -800 0 
	-800 0 -28.723934 -158.00269 -800 0 -0.052282185 170.35202 
18.03 -4.0425613 40.093043 -800 0 -33.486006 41.869849 -800 0 
	-800 0 -2.1393052 23.670647 -800 0 -28.689595 -158.14405 
	-33.486006 41.869849 -800 0 -0.016608142 178.79488 -800 0 
	-800 0 -28.689595 -158.14405 -800 0 -0.052571246 170.32157 
18.04 -3.9995239 39.155675 -800 0 -33.832112 41.476469 -800 0 
	-800 0 -2.1436591 23.232035 -800 0 -28.655105 -158.28331 
	-33.832112 41.476469 -800 0 -0.016318669 178.78761 -800 0 
	-800 0 -28.655105 -158.28331 -800 0 -0.05285945 170.2909 
18.05 -3.9600952 38.251426 -800 0 -34.168234 41.099767 -800 0 
	-800 0 -2.1479922 22.792755 -800 0 -28.620468 -158.42046 
	-34.168234 41.099767 -800 0 -0.0160553 178.7807 -800 0 
	-800 0 -28.620468 -158.42046 -800 0 -0.053146696 170.26001 
18.06 -3.9239055 37.376737 -800 0 -34.495019 40.738251 -800 0 
	-800 0 -2.1523049 22.352809 -800 0 -28.585684 -158.55544 
	-34.495019 40.738251 -800 0 -0.015814916 178.77412 -800 0 
	-800 0 -28.585684 -158.55544 -800 0 -0.053432877 170.22889 
18.07 -3.8906334 36.528521 -800 0 -34.813057 40.390614 -800 0 
	-800 0 -2.1565976 21.912201 -800 0 -28.550754 -158.68823 
	-34.813057 40.390614 -800 0 -0.015594857 178.76785 -800 0 
	-800 0 -28.550754 -158.68823 -800 0 -0.053717882 170.19755 
18.08 -3.8599988 35.704095 -800 0 -35.122884 40.05571 -800 0 
	-800 0 -2.1608706 21.470934 -800 0 -28.51568 -158.8188 
	-35.122884 40.05571 -800 0 -0.015392837 178.76185 -800 0 
	-800 0 -28.51568 -158.8188 -800 0 -0.054001592 170.16598 
18.09 -3.8317562 34.901111 -800 0 -35.424991 39.732527 -800 0 
	-800 0 -2.1651245 21.02901 -800 0 -28.480463 -158.9471 
	-35.424991 39.732527 -800 0 -0.015206887 178.7561 -800 0 
	-800 0 -28.480463 -158.9471 -800 0 -0.054283885 170.13418 
18.1 -3.8056894 34.117508 -800 0 -35.719825 39.420171 -800 0 
	-800 0 -2.1693596 20.586432 -800 0 -28.445104 -159.0731 
	-35.719825 39.420171 -800 0 -0.0150353 178.75059 -800 0 
	-800 0 -28.445104 -159.0731 -800 0 -0.054564634 170.10215 
18.11 -3.7835748 33.346802 -800 0 -36.005163 39.177148 -800 0 
	-800 0 -2.1737957 20.140109 -800 0 -28.410426 -159.24635 
	-36.005163 39.177148 -800 0 -0.014895508 178.74533 -800 0 
	-800 0 -28.410426 -159.24635 -800 0 -0.055125116 170.07044 
18.12 -3.7630528 32.592462 -800 0 -36.284076 38.940304 -800 0 
	-800 0 -2.1782135 19.693091 -800 0 -28.375537 -159.41812 
	-36.284076 38.940304 -800 0 -0.014765327 178.74026 -800 0 
	-800 0 -28.375537 -159.41812 -800 0 -0.055692082 170.03849 
18.13 -3.7439999 31.853009 -800 0 -36.556911 38.709262 -800 0 
	-800 0 -2.1826133 19.24538 -800 0 -28.340437 -159.58838 
	-36.556911 38.709262 -800 0 -0.01464386 178.73537 -800 0 
	-800 0 -28.340437 -159.58838 -800 0 -0.056265621 170.00629 
18.14 -3.7263051 31.127123 -800 0 -36.823992 38.483689 -800 0 
	-800 0 -2.1869954 18.796978 -800 0 -28.305122 -159.75712 
	-36.823992 38.483689 -800 0 -0.014530315 178.73065 -800 0 
	-800 0 -28.305122 -159.75712 -800 0 -0.05684583 169.97384 
18.15 -3.7098683 30.413627 -800 0 -37.085615 38.263285 -800 0 
	-800 0 -2.1913602 18.347885 -800 0 -28.269593 -159.9243 
	-37.085615 38.263285 -800 0 -0.014423988 178.72609 -800 0 
	-800 0 -28.269593 -159.9243 -800 0 -0.057432802 169.94113 
18.16 -3.694599 29.711466 -800 0 -37.342058 38.047781 -800 0 
	-800 0 -2.195708 17.898105 -800 0 -28.233847 -160.08988 
	-37.342058 38.047781 -800 0 -0.014324254 178.72167 -800 0 
	-800 0 -28.233847 -160.08988 -800 0 -0.058026636 169.90815 
18.17 -3.6804149 29.019687 -800 0 -37.593578 37.836936 -800 0 
	-800 0 -2.200039 17.447638 -800 0 -28.197883 -160.25385 
	-37.593578 37.836936 -800 0 -0.014230553 178.71738 -800 0 
	-800 0 -28.197883 -160.25385 -800 0 -0.058627429 169.8749 
18.18 -3.6672416 28.337436 -800 0 -37.840412 37.630532 -800 0 
	-800 0 -2.2043536 16.996486 -800 0 -28.161699 -160.41616 
	-37.840412 37.630532 -800 0 -0.014142386 178.71323 -800 0 
	-800 0 -28.161699 -160.41616 -800 0 -0.059235284 169.84138 
18.19 -3.6550111 27.663938 -800 0 -38.082784 37.428375 -800 0 
	-800 0 -2.2086521 16.544651 -800 0 -28.125293 -160.57679 
	-38.082784 37.428375 -800 0 -0.014059303 178.70918 -800 0 
	-800 0 -28.125293 -160.57679 -800 0 -0.059850302 169.80759 
18.2 -3.6436614 26.99849 -800 0 -38.320903 37.230287 -800 0 
	-800 0 -2.212935 16.092135 -800 0 -28.088664 -160.73572 
	-38.320903 37.230287 -800 0 -0.0139809 178.70525 -800 0 
	-800 0 -28.088664 -160.73572 -800 0 -0.060472589 169.7735 
18.21 -3.634126 26.337005 -800 0 -38.553393 37.076033 -800 0 
	-800 0 -2.2171905 15.636772 -800 0 -28.051141 -160.87668 
	-38.553393 37.076033 -800 0 -0.013916843 178.70144 -800 0 
	-800 0 -28.051141 -160.87668 -800 0 -0.060949999 169.73901 
18.22 -3.6252738 25.682548 -800 0 -38.782024 36.923951 -800 0 
	-800 0 -2.2214218 15.180767 -800 0 -28.01342 -161.01532 
	-38.782024 36.923951 -800 0 -0.013856022 178.69773 -800 0 
	-800 0 -28.01342 -161.01532 -800 0 -0.061430455 169.70424 
18.23 -3.6170656 25.034573 -800 0 -39.006968 36.774013 -800 0 
	-800 0 -2.2256291 14.724122 -800 0 -27.975501 -161.1516 
	-39.006968 36.774013 -800 0 -0.013798214 178.69411 -800 0 
	-800 0 -27.975501 -161.1516 -800 0 -0.061913947 169.66917 
18.24 -3.6094648 24.392578 -800 0 -39.228384 36.626196 -800 0 
	-800 0 -2.229813 14.26684 -800 0 -27.937383 -161.28549 
	-39.228384 36.626196 -800 0 -0.013743213 178.69058 -800 0 
	-800 0 -27.937383 -161.28549 -800 0 -0.062400464 169.63379 
18.25 -3.6024378 23.756106 -800 0 -39.446422 36.480481 -800 0 
	-800 0 -2.2339739 13.808925 -800 0 -27.899066 -161.41693 
	-39.446422 36.480481 -800 0 -0.013690829 178.68712 -800 0 
	-800 0 -27.899066 -161.41693 -800 0 -0.062889996 169.59812 
18.26 -3.595953 23.124736 -800 0 -39.661226 36.336852 -800 0 
	-800 0 -2.2381121 13.350381 -800 0 -27.86055 -161.54588 
	-39.661226 36.336852 -800 0 -0.01364089 178.68373 -800 0 
	-800 0 -27.86055 -161.54588 -800 0 -0.063382536 169.56213 
18.27 -3.5899815 22.498081 -800 0 -39.872928 36.195297 -800 0 
	-800 0 -2.2422281 12.891211 -800 0 -27.821834 -161.6723 
	-39.872928 36.195297 -800 0 -0.013593235 178.68042 -800 0 
	-800 0 -27.821834 -161.6723 -800 0 -0.063878074 169.52582 
18.28 -3.584496 21.875784 -800 0 -40.081654 36.055806 -800 0 
	-800 0 -2.2463224 12.431419 -800 0 -27.782918 -161.79614 
	-40.081654 36.055806 -800 0 -0.013547718 178.67717 -800 0 
	-800 0 -27.782918 -161.79614 -800 0 -0.064376608 169.48919 
18.29 -3.5794714 21.257515 -800 0 -40.287524 35.918372 -800 0 
	-800 0 -2.2503955 11.971008 -800 0 -27.743801 -161.91735 
	-40.287524 35.918372 -800 0 -0.013504204 178.67399 -800 0 
	-800 0 -27.743801 -161.91735 -800 0 -0.064878136 169.45223 
18.3 -3.5748839 20.642971 -800 0 -40.49065 35.78299 -800 0 
	-800 0 -2.2544478 11.509982 -800 0 -27.704483 -162.03589 
	-40.49065 35.78299 -800 0 -0.013462566 178.67086 -800 0 
	-800 0 -27.704483 -162.03589 -800 0 -0.065382661 169.41493 
18.31 -3.571121 20.029688 -800 0 -40.690518 35.671874 -800 0 
	-800 0 -2.258523 11.046396 -800 0 -27.665776 -162.15885 
	-40.690518 35.671874 -800 0 -0.013428202 178.66781 -800 0 
	-800 0 -27.665776 -162.15885 -800 0 -0.06586482 169.37769 
18.32 -3.5677208 19.419684 -800 0 -40.887836 35.562052 -800 0 
	-800 0 -2.262574 10.582214 -800 0 -27.626877 -162.27911 
	-40.887836 35.562052 -800 0 -0.01339522 178.66482 -800 0 
	-800 0 -27.626877 -162.27911 -800 0 -0.066349878 169.34011 
18.33 -3.5646663 18.812709 -800 0 -41.082699 35.453568 -800 0 
	-800 0 -2.2666016 10.117438 -800 0 -27.587787 -162.39664 
	-41.082699 35.453568 -800 0 -0.013363542 178.66187 -800 0 
	-800 0 -27.587787 -162.39664 -800 0 -0.06683789 169.30219 
18.34 -3.5619416 18.20853 -800 0 -41.275201 35.346464 -800 0 
	-800 0 -2.2706063 9.652073 -800 0 -27.548506 -162.51138 
	-41.275201 35.346464 -800 0 -0.013333098 178.65897 -800 0 
	-800 0 -27.548506 -162.51138 -800 0 -0.067328925 169.26393 
18.35 -3.5595317 17.60693 -800 0 -41.465429 35.240783 -800 0 
	-800 0 -2.2745887 9.1861227 -800 0 -27.509033 -162.6233 
	-41.465429 35.240783 -800 0 -0.01330382 178.65612 -800 0 
	-800 0 -27.509033 -162.6233 -800 0 -0.067823075 169.2253 
18.36 -3.5574223 17.007707 -800 0 -41.653467 35.136564 -800 0 
	-800 0 -2.2785494 8.7195908 -800 0 -27.46937 -162.73233 
	-41.653467 35.136564 -800 0 -0.013275646 178.65331 -800 0 
	-800 0 -27.46937 -162.73233 -800 0 -0.068320458 169.18632 
18.37 -3.5556002 16.410672 -800 0 -41.839393 35.033849 -800 0 
	-800 0 -2.282489 8.2524814 -800 0 -27.429518 -162.83844 
	-41.839393 35.033849 -800 0 -0.013248515 178.65054 -800 0 
	-800 0 -27.429518 -162.83844 -800 0 -0.068821225 169.14695 
18.38 -3.5540525 15.815647 -800 0 -42.023284 34.932678 -800 0 
	-800 0 -2.2864084 7.7847981 -800 0 -27.389476 -162.94157 
	-42.023284 34.932678 -800 0 -0.013222372 178.64781 -800 0 
	-800 0 -27.389476 -162.94157 -800 0 -0.069325566 169.10721 
18.39 -3.5527674 15.222468 -800 0 -42.205212 34.833089 -800 0 
	-800 0 -2.2903082 7.316545 -800 0 -27.349246 -163.04166 
	-42.205212 34.833089 -800 0 -0.013197165 178.64512 -800 0 
	-800 0 -27.349246 -163.04166 -800 0 -0.069833728 169.06707 
18.4 -3.5517336 14.630977 -800 0 -42.385246 34.735122 -800 0 
	-800 0 -2.2941892 6.8477257 -800 0 -27.308828 -163.13866 
	-42.385246 34.735122 -800 0 -0.013172844 178.64246 -800 0 
	-800 0 -27.308828 -163.13866 -800 0 -0.070346019 169.02652 
18.41 -3.5510321 14.040012 -800 0 -42.563374 34.646965 -800 0 
	-800 0 -2.2983807 6.3740718 -800 0 -27.266187 -163.27673 
	-42.563374 34.646965 -800 0 -0.01315272 178.63985 -800 0 
	-800 0 -27.266187 -163.27673 -800 0 -0.071107461 168.98533 
18.42 -3.5505536 13.450496 -800 0 -42.739705 34.56019 -800 0 
	-800 0 -2.3025448 5.8997855 -800 0 -27.223228 -163.41196 
	-42.739705 34.56019 -800 0 -0.013133302 178.63728 -800 0 
	-800 0 -27.223228 -163.41196 -800 0 -0.071883438 168.94365 
18.43 -3.5502889 12.862294 -800 0 -42.9143 34.474852 -800 0 
	-800 0 -2.3066819 5.4248705 -800 0 -27.179943 -163.5443 
	-42.9143 34.474852 -800 0 -0.013114557 178.63474 -800 0 
	-800 0 -27.179943 -163.5443 -800 0 -0.072675436 168.90147 
18.44 -3.5502291 12.275283 -800 0 -43.087218 34.391005 -800 0 
	-800 0 -2.3107924 4.9493308 -800 0 -27.136322 -163.67366 
	-43.087218 34.391005 -800 0 -0.013096451 178.63223 -800 0 
	-800 0 -27.136322 -163.67366 -800 0 -0.073485311 168.85877 
18.45 -3.550366 11.689344 -800 0 -43.258516 34.308704 -800 0 
	-800 0 -2.3148766 4.4731701 -800 0 -27.092353 -163.79997 
	-43.258516 34.308704 -800 0 -0.013078954 178.62974 -800 0 
	-800 0 -27.092353 -163.79997 -800 0 -0.074315394 168.81553 
18.46 -3.5506915 11.104364 -800 0 -43.428249 34.228001 -800 0 
	-800 0 -2.3189351 3.9963925 -800 0 -27.048021 -163.92315 
	-43.428249 34.228001 -800 0 -0.013062037 178.62728 -800 0 
	-800 0 -27.048021 -163.92315 -800 0 -0.075168643 168.7717 
18.47 -3.551198 10.520239 -800 0 -43.596468 34.148948 -800 0 
	-800 0 -2.3229681 3.5190021 -800 0 -27.003309 -164.04312 
	-43.596468 34.148948 -800 0 -0.013045671 178.62485 -800 0 
	-800 0 -27.003309 -164.04312 -800 0 -0.076048839 168.72727 
18.48 -3.5518783 9.9368677 -800 0 -43.763224 34.071597 -800 0 
	-800 0 -2.3269762 3.0410032 -800 0 -26.958196 -164.1598 
	-43.763224 34.071597 -800 0 -0.01302983 178.62244 -800 0 
	-800 0 -26.958196 -164.1598 -800 0 -0.07696086 168.6822 
18.49 -3.5527255 9.3541549 -800 0 -43.928565 33.996001 -800 0 
	-800 0 -2.3309598 2.5624 -800 0 -26.912654 -164.2731 
	-43.928565 33.996001 -800 0 -0.013014489 178.62006 -800 0 
	-800 0 -26.912654 -164.2731 -800 0 -0.077911044 168.63645 
18.5 -3.553733 8.7720098 -800 0 -44.092537 33.922209 -800 0 
	-800 0 -2.3349191 2.083197 -800 0 -26.866651 -164.38297 
	-44.092537 33.922209 -800 0 -0.012999622 178.6177 -800 0 
	-800 0 -26.866651 -164.38297 -800 0 -0.07890769 168.58998 
18.51 -3.554839 8.1889895 -800 0 -44.256527 33.85663 -800 0 
	-800 0 -2.3388238 1.6011716 -800 0 -26.818985 -164.48844 
	-44.256527 33.85663 -800 0 -0.012988007 178.61537 -800 0 
	-800 0 -26.818985 -164.48844 -800 0 -0.079908494 168.54215 
18.52 -3.5560927 7.6064408 -800 0 -44.419177 33.792677 -800 0 
	-800 0 -2.3426959 1.1185746 -800 0 -26.770755 -164.58986 
	-44.419177 33.792677 -800 0 -0.01297677 178.61307 -800 0 
	-800 0 -26.770755 -164.58986 -800 0 -0.080982894 168.49353 
18.53 -3.5574882 7.024281 -800 0 -44.580528 33.730416 -800 0 
	-800 0 -2.3465357 0.63541311 -800 0 -26.721899 -164.68722 
	-44.580528 33.730416 -800 0 -0.012965894 178.61078 -800 0 
	-800 0 -26.721899 -164.68722 -800 0 -0.082150466 168.44411 
18.54 -3.5590201 6.4424309 -800 0 -44.740623 33.66991 -800 0 
	-800 0 -2.3503431 0.15169407 -800 0 -26.672341 -164.78058 
	-44.740623 33.66991 -800 0 -0.012955362 178.60852 -800 0 
	-800 0 -26.672341 -164.78058 -800 0 -0.083436484 168.39388 
18.55 -3.5606829 5.8608152 -800 0 -44.899503 33.611222 -800 0 
	-800 0 -2.3541179 -0.33257588 -800 0 -26.621987 -164.87017 
	-44.899503 33.611222 -800 0 -0.012945159 178.60627 -800 0 
	-800 0 -26.621987 -164.87017 -800 0 -0.084872991 168.34288 
18.56 -3.5624717 5.2793613 -800 0 -45.057205 33.554416 -800 0 
	-800 0 -2.3578595 -0.81739121 -800 0 -26.570727 -164.95645 
	-45.057205 33.554416 -800 0 -0.01293527 178.60404 -800 0 
	-800 0 -26.570727 -164.95645 -800 0 -0.086499245 168.29124 
18.57 -3.5643814 4.6979999 -800 0 -45.213769 33.499554 -800 0 
	-800 0 -2.3615673 -1.3027485 -800 0 -26.518446 -165.04022 
	-45.213769 33.499554 -800 0 -0.01292568 178.60183 -800 0 
	-800 0 -26.518446 -165.04022 -800 0 -0.088360366 168.23917 
18.58 -3.5664075 4.1166645 -800 0 -45.36923 33.4467 -800 0 
	-800 0 -2.36524 -1.7886488 -800 0 -26.46504 -165.12283 
	-45.36923 33.4467 -800 0 -0.012916376 178.59964 -800 0 
	-800 0 -26.46504 -165.12283 -800 0 -0.090501994 168.18706 
18.59 -3.5685453 3.535291 -800 0 -45.523623 33.395916 -800 0 
	-800 0 -2.3688763 -2.2750994 -800 0 -26.410463 -165.20622 
	-45.523623 33.395916 -800 0 -0.012907343 178.59746 -800 0 
	-800 0 -26.410463 -165.20622 -800 0 -0.092957617 168.13555 
18.6 -3.5707905 2.9538176 -800 0 -45.676983 33.347265 -800 0 
	-800 0 -2.3724754 -2.7621177 -800 0 -26.3548 -165.29297 
	-45.676983 33.347265 -800 0 -0.012898568 178.5953 -800 0 
	-800 0 -26.3548 -165.29297 -800 0 -0.095725236 168.0855 
18.61 -3.5730702 2.3709923 -800 0 -45.830838 33.307417 -800 0 
	-800 0 -2.3766616 -3.252442 -800 0 -26.304792 -165.43686 
	-45.830838 33.307417 -800 0 -0.012892685 178.59316 -800 0 
	-800 0 -26.304792 -165.43686 -800 0 -0.098808221 168.04065 
18.62 -3.5754492 1.7880135 -800 0 -45.983667 33.269542 -800 0 
	-800 0 -2.3808303 -3.7435317 -800 0 -26.255535 -165.58994 
	-45.983667 33.269542 -800 0 -0.012886993 178.59105 -800 0 
	-800 0 -26.255535 -165.58994 -800 0 -0.10196151 167.99927 
18.63 -3.5779236 1.2048226 -800 0 -46.135503 33.233717 -800 0 
	-800 0 -2.3849923 -4.2353752 -800 0 -26.207847 -165.74994 
	-46.135503 33.233717 -800 0 -0.012881482 178.58894 -800 0 
	-800 0 -26.207847 -165.74994 -800 0 -0.10494486 167.9617 
18.64 -3.5804897 0.62136261 -800 0 -46.286377 33.200019 -800 0 
	-800 0 -2.3891578 -4.727925 -800 0 -26.162354 -165.91161 
	-46.286377 33.200019 -800 0 -0.012876144 178.58685 -800 0 
	-800 0 -26.162354 -165.91161 -800 0 -0.10749184 167.92741 
18.65 -3.5831439 0.037578544 -800 0 -46.436319 33.168525 -800 0 
	-800 0 -2.3933325 -5.2211055 -800 0 -26.11921 -166.06794 
	-46.436319 33.168525 -800 0 -0.012870973 178.58477 -800 0 
	-800 0 -26.11921 -166.06794 -800 0 -0.10940125 167.89495 
18.66 -3.5858828 -0.54658307 -800 0 -46.585359 33.139314 -800 0 
	-800 0 -2.3975162 -5.7148359 -800 0 -26.078017 -166.21244 
	-46.585359 33.139314 -800 0 -0.012865959 178.58271 -800 0 
	-800 0 -26.078017 -166.21244 -800 0 -0.11061075 167.86244 
18.67 -3.5887031 -1.131174 -800 0 -46.733526 33.112463 -800 0 
	-800 0 -2.4017033 -6.2090553 -800 0 -26.038004 -166.34106 
	-46.733526 33.112463 -800 0 -0.012861096 178.58065 -800 0 
	-800 0 -26.038004 -166.34106 -800 0 -0.11120245 167.82817 
18.68 -3.5916016 -1.7162448 -800 0 -46.880847 33.088052 -800 0 
	-800 0 -2.4058864 -6.703735 -800 0 -25.998334 -166.4528 
	-46.880847 33.088052 -800 0 -0.012856376 178.57861 -800 0 
	-800 0 -25.998334 -166.4528 -800 0 -0.11134575 167.79106 
18.69 -3.5945751 -2.3018446 -800 0 -47.02735 33.06616 -800 0 
	-800 0 -2.4100589 -7.198874 -800 0 -25.958328 -166.54889 
	-47.02735 33.06616 -800 0 -0.012851791 178.57658 -800 0 
	-800 0 -25.958328 -166.54889 -800 0 -0.11122584 167.75071 
18.7 -3.5976207 -2.8880214 -800 0 -47.173061 33.046869 -800 0 
	-800 0 -2.4142165 -7.6944876 -800 0 -25.917553 -166.63164 
	-47.173061 33.046869 -800 0 -0.012847335 178.57456 -800 0 
	-800 0 -25.917553 -166.63164 -800 0 -0.11099671 167.70721 
18.71 -3.600764 -3.4749031 -800 0 -47.317334 33.031908 -800 0 
	-800 0 -2.418346 -8.2001979 -800 0 -25.863649 -166.80534 
	-47.317334 33.031908 -800 0 -0.01284546 178.57257 -800 0 
	-800 0 -25.863649 -166.80534 -800 0 -0.11160995 167.65645 
18.72 -3.603972 -4.0624553 -800 0 -47.460847 33.019539 -800 0 
	-800 0 -2.4224259 -8.7066883 -800 0 -25.808229 -166.97531 
	-47.460847 33.019539 -800 0 -0.012843668 178.57059 -800 0 
	-800 0 -25.808229 -166.97531 -800 0 -0.11240198 167.60318 
18.73 -3.607242 -4.650723 -800 0 -47.603625 33.009854 -800 0 
	-800 0 -2.4264578 -9.2139666 -800 0 -25.751436 -167.14261 
	-47.603625 33.009854 -800 0 -0.012841956 178.56862 -800 0 
	-800 0 -25.751436 -167.14261 -800 0 -0.11338628 167.54793 
18.74 -3.6105717 -5.2397506 -800 0 -47.745691 33.002949 -800 0 
	-800 0 -2.4304431 -9.7220356 -800 0 -25.693398 -167.30778 
	-47.745691 33.002949 -800 0 -0.012840318 178.56666 -800 0 
	-800 0 -25.693398 -167.30778 -800 0 -0.11455947 167.49104 
18.75 -3.6139586 -5.8295814 -800 0 -47.887069 32.998919 -800 0 
	-800 0 -2.4343833 -10.230894 -800 0 -25.634219 -167.47109 
	-47.887069 32.998919 -800 0 -0.01283875 178.56471 -800 0 
	-800 0 -25.634219 -167.47109 -800 0 -0.11591077 167.43279 
18.76 -3.6174003 -6.4202584 -800 0 -48.02778 32.99786 -800 0 
	-800 0 -2.4382793 -10.740539 -800 0 -25.573982 -167.6326 
	-48.02778 32.99786 -800 0 -0.012837249 178.56277 -800 0 
	-800 0 -25.573982 -167.6326 -800 0 -0.11742717 167.37334 
18.77 -3.6208948 -7.0118235 -800 0 -48.167846 32.999871 -800 0 
	-800 0 -2.4421318 -11.250963 -800 0 -25.512743 -167.79224 
	-48.167846 32.999871 -800 0 -0.01283581 178.56083 -800 0 
	-800 0 -25.512743 -167.79224 -800 0 -0.11909593 167.3128 
18.78 -3.6244399 -7.6043184 -800 0 -48.307289 33.005054 -800 0 
	-800 0 -2.445941 -11.762163 -800 0 -25.450542 -167.94993 
	-48.307289 33.005054 -800 0 -0.012834429 178.55891 -800 0 
	-800 0 -25.450542 -167.94993 -800 0 -0.12090573 167.25126 
18.79 -3.6280335 -8.197784 -800 0 -48.446127 33.013511 -800 0 
	-800 0 -2.4497068 -12.274132 -800 0 -25.387406 -168.10553 
	-48.446127 33.013511 -800 0 -0.012833102 178.55699 -800 0 
	-800 0 -25.387406 -168.10553 -800 0 -0.12284701 167.18875 
18.8 -3.6316739 -8.7922611 -800 0 -48.584382 33.025347 -800 0 
	-800 0 -2.4534289 -12.786868 -800 0 -25.32335 -168.25891 
	-48.584382 33.025347 -800 0 -0.012831826 178.55508 -800 0 
	-800 0 -25.32335 -168.25891 -800 0 -0.12491204 167.12529 
18.81 -3.6354891 -9.3872848 -800 0 -48.719232 33.039202 -800 0 
	-800 0 -2.4575121 -13.301097 -800 0 -25.267331 -168.42 
	-48.719232 33.039202 -800 0 -0.012832956 178.5532 -800 0 
	-800 0 -25.267331 -168.42 -800 0 -0.12700473 167.06571 
18.82 -3.6393431 -9.9834407 -800 0 -48.853551 33.056572 -800 0 
	-800 0 -2.4615688 -13.81608 -800 0 -25.210703 -168.57906 
	-48.853551 33.056572 -800 0 -0.012834102 178.55133 -800 0 
	-800 0 -25.210703 -168.57906 -800 0 -0.12920514 167.00542 
18.83 -3.6432345 -10.580767 -800 0 -48.987356 33.077575 -800 0 
	-800 0 -2.4656002 -14.331816 -800 0 -25.153465 -168.73596 
	-48.987356 33.077575 -800 0 -0.012835262 178.54946 -800 0 
	-800 0 -25.153465 -168.73596 -800 0 -0.13150951 166.94441 
18.84 -3.6471618 -11.179302 -800 0 -49.120665 33.102331 -800 0 
	-800 0 -2.4696079 -14.848305 -800 0 -25.095611 -168.89059 
	-49.120665 33.102331 -800 0 -0.012836435 178.54761 -800 0 
	-800 0 -25.095611 -168.89059 -800 0 -0.13391522 166.88267 
18.85 -3.6511235 -11.779082 -800 0 -49.253491 33.130963 -800 0 
	-800 0 -2.4735931 -15.365544 -800 0 -25.037134 -169.04283 
	-49.253491 33.130963 -800 0 -0.012837616 178.54575 -800 0 
	-800 0 -25.037134 -169.04283 -800 0 -0.13642057 166.82018 
18.86 -3.6551185 -12.380146 -800 0 -49.385853 33.163599 -800 0 
	-800 0 -2.4775574 -15.883531 -800 0 -24.978025 -169.19259 
	-49.385853 33.163599 -800 0 -0.012838806 178.54391 -800 0 
	-800 0 -24.978025 -169.19259 -800 0 -0.13902464 166.75693 
18.87 -3.6591456 -12.982531 -800 0 -49.517762 33.200368 -800 0 
	-800 0 -2.4815024 -16.402264 -800 0 -24.918275 -169.33975 
	-49.517762 33.200368 -800 0 -0.012840001 178.54207 -800 0 
	-800 0 -24.918275 -169.33975 -800 0 -0.14172719 166.69289 
18.88 -3.6632036 -13.586275 -800 0 -49.649235 33.241402 -800 0 
	-800 0 -2.4854294 -16.921739 -800 0 -24.857872 -169.48421 
	-49.649235 33.241402 -800 0 -0.012841198 178.54023 -800 0 
	-800 0 -24.857872 -169.48421 -800 0 -0.14452856 166.62805 
18.89 -3.6672915 -14.191414 -800 0 -49.780284 33.286838 -800 0 
	-800 0 -2.4893402 -17.441953 -800 0 -24.796804 -169.62588 
	-49.780284 33.286838 -800 0 -0.012842397 178.5384 -800 0 
	-800 0 -24.796804 -169.62588 -800 0 -0.14742959 166.56239 
18.9 -3.6714086 -14.797986 -800 0 -49.910922 33.336817 -800 0 
	-800 0 -2.4932364 -17.962902 -800 0 -24.735055 -169.76464 
	-49.910922 33.336817 -800 0 -0.012843594 178.53657 -800 0 
	-800 0 -24.735055 -169.76464 -800 0 -0.15043157 166.49588 
18.91 -3.6757356 -15.405459 -800 0 -50.03695 33.388671 -800 0 
	-800 0 -2.4967015 -18.48429 -800 0 -24.669382 -169.84555 
	-50.03695 33.388671 -800 0 -0.012847045 178.53478 -800 0 
	-800 0 -24.669382 -169.84555 -800 0 -0.15285828 166.42593 
18.92 -3.6800845 -16.014492 -800 0 -50.162623 33.445343 -800 0 
	-800 0 -2.5001378 -19.00622 -800 0 -24.602909 -169.92172 
	-50.162623 33.445343 -800 0 -0.012850468 178.533 -800 0 
	-800 0 -24.602909 -169.92172 -800 0 -0.15536048 166.35496 
18.93 -3.684455 -16.625123 -800 0 -50.287951 33.506989 -800 0 
	-800 0 -2.5035474 -19.528681 -800 0 -24.535619 -169.993 
	-50.287951 33.506989 -800 0 -0.012853862 178.53121 -800 0 
	-800 0 -24.535619 -169.993 -800 0 -0.1579392 166.28294 
18.94 -3.6888466 -17.237387 -800 0 -50.412941 33.573767 -800 0 
	-800 0 -2.5069327 -20.051657 -800 0 -24.467495 -170.05925 
	-50.412941 33.573767 -800 0 -0.012857227 178.52943 -800 0 
	-800 0 -24.467495 -170.05925 -800 0 -0.16059573 166.20985 
18.95 -3.6932591 -17.85132 -800 0 -50.537603 33.645843 -800 0 
	-800 0 -2.510296 -20.575134 -800 0 -24.398518 -170.12032 
	-50.537603 33.645843 -800 0 -0.012860561 178.52766 -800 0 
	-800 0 -24.398518 -170.12032 -800 0 -0.16333161 166.13563 
18.96 -3.6976922 -18.466957 -800 0 -50.661943 33.723383 -800 0 
	-800 0 -2.51364 -21.099095 -800 0 -24.328666 -170.17608 
	-50.661943 33.723383 -800 0 -0.012863863 178.52589 -800 0 
	-800 0 -24.328666 -170.17608 -800 0 -0.1661486 166.06027 
18.97 -3.7021459 -19.084335 -800 0 -50.785967 33.806562 -800 0 
	-800 0 -2.5169673 -21.623522 -800 0 -24.257916 -170.22638 
	-50.785967 33.806562 -800 0 -0.012867132 178.52412 -800 0 
	-800 0 -24.257916 -170.22638 -800 0 -0.16904871 165.98371 
18.98 -3.7066204 -19.70349 -800 0 -50.90968 33.895556 -800 0 
	-800 0 -2.5202808 -22.148397 -800 0 -24.186246 -170.27107 
	-50.90968 33.895556 -800 0 -0.012870366 178.52236 -800 0 
	-800 0 -24.186246 -170.27107 -800 0 -0.17203411 165.90594 
18.99 -3.7111156 -20.324459 -800 0 -51.033087 33.990547 -800 0 
	-800 0 -2.5235835 -22.673699 -800 0 -24.113627 -170.30999 
	-51.033087 33.990547 -800 0 -0.012873566 178.5206 -800 0 
	-800 0 -24.113627 -170.30999 -800 0 -0.17510723 165.82689 
19 -3.7156321 -20.947277 -800 0 -51.15619 34.091724 -800 0 
	-800 0 -2.5268786 -23.199408 -800 0 -24.040034 -170.343 
	-51.15619 34.091724 -800 0 -0.012876729 178.51884 -800 0 
	-800 0 -24.040034 -170.343 -800 0 -0.17827068 165.74654 
19.01 -3.72028 -21.571422 -800 0 -51.27541 34.189918 -800 0 
	-800 0 -2.5303936 -23.73114 -800 0 -23.965671 -170.41875 
	-51.27541 34.189918 -800 0 -0.012881698 178.51711 -800 0 
	-800 0 -23.965671 -170.41875 -800 0 -0.18190784 165.66515 
19.02 -3.7249478 -22.197532 -800 0 -51.394348 34.294778 -800 0 
	-800 0 -2.5338876 -24.26336 -800 0 -23.890233 -170.48919 
	-51.394348 34.294778 -800 0 -0.012886623 178.51539 -800 0 
	-800 0 -23.890233 -170.48919 -800 0 -0.18566008 165.5824 
19.03 -3.7296361 -22.825645 -800 0 -51.513004 34.406507 -800 0 
	-800 0 -2.5373632 -24.796044 -800 0 -23.813682 -170.55418 
	-51.513004 34.406507 -800 0 -0.012891501 178.51367 -800 0 
	-800 0 -23.813682 -170.55418 -800 0 -0.1895318 165.49825 
19.04 -3.7343458 -23.455794 -800 0 -51.631374 34.525313 -800 0 
	-800 0 -2.5408232 -25.329166 -800 0 -23.735981 -170.6136 
	-51.631374 34.525313 -800 0 -0.012896333 178.51195 -800 0 
	-800 0 -23.735981 -170.6136 -800 0 -0.19352768 165.41266 
19.05 -3.7390779 -24.088017 -800 0 -51.749455 34.651406 -800 0 
	-800 0 -2.5442704 -25.8627 -800 0 -23.657091 -170.66731 
	-51.749455 34.651406 -800 0 -0.012901117 178.51024 -800 0 
	-800 0 -23.657091 -170.66731 -800 0 -0.19765271 165.32557 
19.06 -3.7438336 -24.722349 -800 0 -51.867242 34.785003 -800 0 
	-800 0 -2.547708 -26.396615 -800 0 -23.576967 -170.71516 
	-51.867242 34.785003 -800 0 -0.012905852 178.50853 -800 0 
	-800 0 -23.576967 -170.71516 -800 0 -0.20191224 165.23693 
19.07 -3.7486142 -25.358826 -800 0 -51.984726 34.926327 -800 0 
	-800 0 -2.551139 -26.930881 -800 0 -23.495567 -170.75704 
	-51.984726 34.926327 -800 0 -0.012910539 178.50682 -800 0 
	-800 0 -23.495567 -170.75704 -800 0 -0.20631196 165.14668 
19.08 -3.7534213 -25.997484 -800 0 -52.1019 35.075602 -800 0 
	-800 0 -2.5545666 -27.465462 -800 0 -23.412842 -170.79281 
	-52.1019 35.075602 -800 0 -0.012915176 178.50511 -800 0 
	-800 0 -23.412842 -170.79281 -800 0 -0.21085791 165.05478 
19.09 -3.7582564 -26.638359 -800 0 -52.218753 35.233058 -800 0 
	-800 0 -2.5579943 -28.000322 -800 0 -23.328743 -170.82234 
	-52.218753 35.233058 -800 0 -0.012919762 178.5034 -800 0 
	-800 0 -23.328743 -170.82234 -800 0 -0.21555656 164.96115 
19.1 -3.7631214 -27.281487 -800 0 -52.335271 35.39893 -800 0 
	-800 0 -2.5614256 -28.535422 -800 0 -23.243216 -170.84551 
	-52.335271 35.39893 -800 0 -0.012924297 178.5017 -800 0 
	-800 0 -23.243216 -170.84551 -800 0 -0.22041479 164.86575 
19.11 -3.7680428 -27.926473 -800 0 -52.449282 35.561304 -800 0 
	-800 0 -2.5643097 -29.075831 -800 0 -23.148081 -170.89879 
	-52.449282 35.561304 -800 0 -0.012930361 178.50003 -800 0 
	-800 0 -23.148081 -170.89879 -800 0 -0.22608145 164.76446 
19.12 -3.7729988 -28.573805 -800 0 -52.562927 35.732697 -800 0 
	-800 0 -2.5671574 -29.616415 -800 0 -23.051117 -170.94634 
	-52.562927 35.732697 -800 0 -0.012936371 178.49835 -800 0 
	-800 0 -23.051117 -170.94634 -800 0 -0.23196299 164.66102 
19.13 -3.7779918 -29.223515 -800 0 -52.676185 35.913352 -800 0 
	-800 0 -2.5699702 -30.157123 -800 0 -22.952251 -170.98808 
	-52.676185 35.913352 -800 0 -0.012942328 178.49668 -800 0 
	-800 0 -22.952251 -170.98808 -800 0 -0.23807058 164.55533 
19.14 -3.7830243 -29.87564 -800 0 -52.789037 36.103514 -800 0 
	-800 0 -2.5727493 -30.697898 -800 0 -22.851408 -171.02395 
	-52.789037 36.103514 -800 0 -0.012948231 178.49501 -800 0 
	-800 0 -22.851408 -171.02395 -800 0 -0.24441618 164.44732 
19.15 -3.788099 -30.530212 -800 0 -52.901457 36.303431 -800 0 
	-800 0 -2.5754962 -31.238678 -800 0 -22.74851 -171.0539 
	-52.901457 36.303431 -800 0 -0.012954079 178.49334 -800 0 
	-800 0 -22.74851 -171.0539 -800 0 -0.25101261 164.33688 
19.16 -3.793219 -31.187267 -800 0 -53.01342 36.51335 -800 0 
	-800 0 -2.5782121 -31.779396 -800 0 -22.643472 -171.07789 
	-53.01342 36.51335 -800 0 -0.012959871 178.49168 -800 0 
	-800 0 -22.643472 -171.07789 -800 0 -0.25787362 164.22392 
19.17 -3.7983873 -31.846837 -800 0 -53.124896 36.733521 -800 0 
	-800 0 -2.580898 -32.319981 -800 0 -22.536208 -171.09589 
	-53.124896 36.733521 -800 0 -0.012965606 178.49001 -800 0 
	-800 0 -22.536208 -171.09589 -800 0 -0.26501397 164.10834 
19.18 -3.8036074 -32.508955 -800 0 -53.235852 36.964191 -800 0 
	-800 0 -2.583555 -32.860355 -800 0 -22.426623 -171.1079 
	-53.235852 36.964191 -800 0 -0.012971285 178.48835 -800 0 
	-800 0 -22.426623 -171.1079 -800 0 -0.27244954 163.99003 
19.19 -3.8088826 -33.173654 -800 0 -53.346254 37.205605 -800 0 
	-800 0 -2.5861837 -33.400436 -800 0 -22.31462 -171.11391 
	-53.346254 37.205605 -800 0 -0.012976906 178.48669 -800 0 
	-800 0 -22.31462 -171.11391 -800 0 -0.28019739 163.86888 
19.2 -3.8142168 -33.840967 -800 0 -53.456063 37.458007 -800 0 
	-800 0 -2.5887846 -33.940132 -800 0 -22.200098 -171.11395 
	-53.456063 37.458007 -800 0 -0.012982468 178.48503 -800 0 
	-800 0 -22.200098 -171.11395 -800 0 -0.28827591 163.74476 
19.21 -3.8195885 -34.510851 -800 0 -53.564089 37.71653 -800 0 
	-800 0 -2.5917487 -34.484333 -800 0 -22.090785 -171.14044 
	-53.564089 37.71653 -800 0 -0.012989611 178.48339 -800 0 
	-800 0 -22.090785 -171.14044 -800 0 -0.29660125 163.62477 
19.22 -3.8250278 -35.183403 -800 0 -53.671424 37.986541 -800 0 
	-800 0 -2.5946924 -35.028116 -800 0 -21.979019 -171.1618 
	-53.671424 37.986541 -800 0 -0.012996687 178.48176 -800 0 
	-800 0 -21.979019 -171.1618 -800 0 -0.30528894 163.50206 
19.23 -3.830539 -35.858652 -800 0 -53.778019 38.268268 -800 0 
	-800 0 -2.5976161 -35.571384 -800 0 -21.864694 -171.17815 
	-53.778019 38.268268 -800 0 -0.013003696 178.48013 -800 0 
	-800 0 -21.864694 -171.17815 -800 0 -0.31436079 163.37653 
19.24 -3.8361268 -36.536626 -800 0 -53.883824 38.561932 -800 0 
	-800 0 -2.6005198 -36.114032 -800 0 -21.7477 -171.18962 
	-53.883824 38.561932 -800 0 -0.013010638 178.4785 -800 0 
	-800 0 -21.7477 -171.18962 -800 0 -0.3238403 163.24806 
19.25 -3.841796 -37.217353 -800 0 -53.988783 38.867742 -800 0 
	-800 0 -2.603403 -36.655947 -800 0 -21.62792 -171.1964 
	-53.988783 38.867742 -800 0 -0.013017513 178.47687 -800 0 
	-800 0 -21.62792 -171.1964 -800 0 -0.33375283 163.11654 
19.26 -3.8475515 -37.900858 -800 0 -54.092838 39.185899 -800 0 
	-800 0 -2.6062646 -37.197008 -800 0 -21.505234 -171.19869 
	-54.092838 39.185899 -800 0 -0.013024321 178.47524 -800 0 
	-800 0 -21.505234 -171.19869 -800 0 -0.34412575 162.98186 
19.27 -3.8533986 -38.587166 -800 0 -54.195926 39.516586 -800 0 
	-800 0 -2.6091029 -37.737085 -800 0 -21.379516 -171.19674 
	-54.195926 39.516586 -800 0 -0.013031061 178.47361 -800 0 
	-800 0 -21.379516 -171.19674 -800 0 -0.35498864 162.84389 
19.28 -3.8593427 -39.276301 -800 0 -54.297982 39.859973 -800 0 
	-800 0 -2.6119153 -38.276039 -800 0 -21.250635 -171.19087 
	-54.297982 39.859973 -800 0 -0.013037733 178.47199 -800 0 
	-800 0 -21.250635 -171.19087 -800 0 -0.36637349 162.7025 
19.29 -3.8653894 -39.968285 -800 0 -54.398935 40.216211 -800 0 
	-800 0 -2.6146987 -38.81372 -800 0 -21.118454 -171.18141 
	-54.398935 40.216211 -800 0 -0.013044337 178.47036 -800 0 
	-800 0 -21.118454 -171.18141 -800 0 -0.37831495 162.55756 
19.3 -3.8715443 -40.663138 -800 0 -54.498712 40.585431 -800 0 
	-800 0 -2.6174484 -39.34997 -800 0 -20.982832 -171.16877 
	-54.498712 40.585431 -800 0 -0.013050872 178.46874 -800 0 
	-800 0 -20.982832 -171.16877 -800 0 -0.39085056 162.40893 
19.31 -3.8777343 -41.360973 -800 0 -54.597071 40.969931 -800 0 
	-800 0 -2.6190319 -39.887545 -800 0 -20.833518 -171.15541 
	-54.597071 40.969931 -800 0 -0.013059012 178.46713 -800 0 
	-800 0 -20.833518 -171.15541 -800 0 -0.40389729 162.24763 
19.32 -3.8840455 -42.061679 -800 0 -54.694075 41.367523 -800 0 
	-800 0 -2.6204809 -40.423033 -800 0 -20.680037 -171.1392 
	-54.694075 41.367523 -800 0 -0.013067071 178.46553 -800 0 
	-800 0 -20.680037 -171.1392 -800 0 -0.41763483 162.08163 
19.33 -3.8904842 -42.765273 -800 0 -54.789641 41.778266 -800 0 
	-800 0 -2.6217818 -40.956204 -800 0 -20.522211 -171.12076 
	-54.789641 41.778266 -800 0 -0.013075048 178.46394 -800 0 
	-800 0 -20.522211 -171.12076 -800 0 -0.43211461 161.91072 
19.34 -3.8970569 -43.471768 -800 0 -54.883682 42.202192 -800 0 
	-800 0 -2.6229182 -41.486814 -800 0 -20.35986 -171.10078 
	-54.883682 42.202192 -800 0 -0.013082945 178.46234 -800 0 
	-800 0 -20.35986 -171.10078 -800 0 -0.4473929 161.73466 
19.35 -3.9037702 -44.181174 -800 0 -54.976109 42.639296 -800 0 
	-800 0 -2.6238714 -42.014604 -800 0 -20.192795 -171.08005 
	-54.976109 42.639296 -800 0 -0.01309076 178.46074 -800 0 
	-800 0 -20.192795 -171.08005 -800 0 -0.4635314 161.55322 
19.36 -3.9106308 -44.893501 -800 0 -55.06683 43.089541 -800 0 
	-800 0 -2.6246195 -42.539293 -800 0 -20.020823 -171.05944 
	-55.06683 43.089541 -800 0 -0.013098495 178.45914 -800 0 
	-800 0 -20.020823 -171.05944 -800 0 -0.48059783 161.36615 
19.37 -3.9176455 -45.608756 -800 0 -55.15575 43.552852 -800 0 
	-800 0 -2.625137 -43.060584 -800 0 -19.843743 -171.03993 
	-55.15575 43.552852 -800 0 -0.01310615 178.45754 -800 0 
	-800 0 -19.843743 -171.03993 -800 0 -0.49866662 161.17318 
19.38 -3.9248213 -46.326943 -800 0 -55.242772 44.029115 -800 0 
	-800 0 -2.6253946 -43.57816 -800 0 -19.661354 -171.02261 
	-55.242772 44.029115 -800 0 -0.013113724 178.45595 -800 0 
	-800 0 -19.661354 -171.02261 -800 0 -0.51781975 160.97404 
19.39 -3.9321652 -47.048064 -800 0 -55.327798 44.518171 -800 0 
	-800 0 -2.6253584 -44.091682 -800 0 -19.473446 -171.00869 
	-55.327798 44.518171 -800 0 -0.013121218 178.45435 -800 0 
	-800 0 -19.473446 -171.00869 -800 0 -0.53814759 160.76844 
19.4 -3.9396841 -47.772118 -800 0 -55.410729 45.01982 -800 0 
	-800 0 -2.6249891 -44.600792 -800 0 -19.279808 -170.99952 
	-55.410729 45.01982 -800 0 -0.013128632 178.45276 -800 0 
	-800 0 -19.279808 -170.99952 -800 0 -0.55974997 160.55609 
19.41 -3.9472664 -48.499122 -800 0 -55.4919 45.540876 -800 0 
	-800 0 -2.6292953 -45.115593 -800 0 -19.130154 -170.96373 
	-55.4919 45.540876 -800 0 -0.013137622 178.45118 -800 0 
	-800 0 -19.130154 -170.96373 -800 0 -0.57809725 160.38455 
19.42 -3.9550396 -49.228999 -800 0 -55.570747 46.073816 -800 0 
	-800 0 -2.6335267 -45.626678 -800 0 -18.976193 -170.93156 
	-55.570747 46.073816 -800 0 -0.013146517 178.44961 -800 0 
	-800 0 -18.976193 -170.93156 -800 0 -0.59743095 160.20926 
19.43 -3.9630111 -49.961739 -800 0 -55.647171 46.6183 -800 0 
	-800 0 -2.6376616 -46.133751 -800 0 -18.817798 -170.90423 
	-55.647171 46.6183 -800 0 -0.013155317 178.44804 -800 0 
	-800 0 -18.817798 -170.90423 -800 0 -0.61782035 160.03017 
19.44 -3.971188 -50.697333 -800 0 -55.721072 47.173937 -800 0 
	-800 0 -2.6416746 -46.636505 -800 0 -18.654847 -170.88309 
	-55.721072 47.173937 -800 0 -0.013164024 178.44647 -800 0 
	-800 0 -18.654847 -170.88309 -800 0 -0.6393403 159.84726 
19.45 -3.9795776 -51.435766 -800 0 -55.792352 47.740286 -800 0 
	-800 0 -2.6455362 -47.13462 -800 0 -18.487222 -170.86957 
	-55.792352 47.740286 -800 0 -0.013172638 178.4449 -800 0 
	-800 0 -18.487222 -170.86957 -800 0 -0.66207163 159.66048 
19.46 -3.9881869 -52.177022 -800 0 -55.860917 48.316853 -800 0 
	-800 0 -2.649212 -47.627758 -800 0 -18.314813 -170.86521 
	-55.860917 48.316853 -800 0 -0.01318116 178.44333 -800 0 
	-800 0 -18.314813 -170.86521 -800 0 -0.6861017 159.46984 
19.47 -3.9970229 -52.921081 -800 0 -55.926675 48.903095 -800 0 
	-800 0 -2.6526623 -48.115574 -800 0 -18.137518 -170.87167 
	-55.926675 48.903095 -800 0 -0.013189591 178.44176 -800 0 
	-800 0 -18.137518 -170.87167 -800 0 -0.71152485 159.27534 
19.48 -4.0060925 -53.667923 -800 0 -55.989537 49.498416 -800 0 
	-800 0 -2.6558417 -48.597709 -800 0 -17.955243 -170.89072 
	-55.989537 49.498416 -800 0 -0.013197931 178.44019 -800 0 
	-800 0 -17.955243 -170.89072 -800 0 -0.73844299 159.07703 
19.49 -4.0154024 -54.41752 -800 0 -56.04942 50.102173 -800 0 
	-800 0 -2.6586979 -49.073795 -800 0 -17.767909 -170.92422 
	-56.04942 50.102173 -800 0 -0.013206181 178.43862 -800 0 
	-800 0 -17.767909 -170.92422 -800 0 -0.76696612 158.87498 
19.5 -4.0249593 -55.169846 -800 0 -56.106244 50.713673 -800 0 
	-800 0 -2.6611715 -49.543457 -800 0 -17.575445 -170.97419 
	-56.106244 50.713673 -800 0 -0.013214341 178.43705 -800 0 
	-800 0 -17.575445 -170.97419 -800 0 -0.79721299 158.6693 
19.51 -4.0346597 -55.924734 -800 0 -56.159661 51.338331 -800 0 
	-800 0 -2.6581907 -50.036661 -800 0 -17.361943 -171.33227 
	-56.159661 51.338331 -800 0 -0.013223989 178.4355 -800 0 
	-800 0 -17.361943 -171.33227 -800 0 -0.83821 158.46715 
19.52 -4.0446215 -56.682231 -800 0 -56.209859 51.96907 -800 0 
	-800 0 -2.6541987 -50.525011 -800 0 -17.143445 -171.7244 
	-56.209859 51.96907 -800 0 -0.013233533 178.43395 -800 0 
	-800 0 -17.143445 -171.7244 -800 0 -0.88200257 158.26495 
19.53 -4.0548508 -57.442301 -800 0 -56.256781 52.605075 -800 0 
	-800 0 -2.649075 -51.008488 -800 0 -16.920042 -172.15364 
	-56.256781 52.605075 -800 0 -0.013242976 178.43241 -800 0 
	-800 0 -16.920042 -172.15364 -800 0 -0.92879685 158.06363 
19.54 -4.0653534 -58.204903 -800 0 -56.300373 53.245495 -800 0 
	-800 0 -2.6426888 -51.487139 -800 0 -16.691862 -172.62315 
	-56.300373 53.245495 -800 0 -0.013252318 178.43086 -800 0 
	-800 0 -16.691862 -172.62315 -800 0 -0.97880962 157.86431 
19.55 -4.0761348 -58.969997 -800 0 -56.340594 53.889449 -800 0 
	-800 0 -2.6348984 -51.961098 -800 0 -16.459076 -173.13621 
	-56.340594 53.889449 -800 0 -0.01326156 178.42931 -800 0 
	-800 0 -16.459076 -173.13621 -800 0 -1.032267 157.66833 
19.56 -4.0872004 -59.737538 -800 0 -56.377408 54.536029 -800 0 
	-800 0 -2.625552 -52.430597 -800 0 -16.221901 -173.69617 
	-56.377408 54.536029 -800 0 -0.013270703 178.42777 -800 0 
	-800 0 -16.221901 -173.69617 -800 0 -1.0894026 157.47726 
19.57 -4.098555 -60.507477 -800 0 -56.410791 55.184303 -800 0 
	-800 0 -2.6144885 -52.89599 -800 0 -15.980601 -174.30648 
	-56.410791 55.184303 -800 0 -0.013279749 178.42622 -800 0 
	-800 0 -15.980601 -174.30648 -800 0 -1.1504544 157.29299 
19.58 -4.110203 -61.279766 -800 0 -56.440726 55.833327 -800 0 
	-800 0 -2.6015386 -53.357767 -800 0 -15.735499 -174.97062 
	-56.440726 55.833327 -800 0 -0.013288698 178.42467 -800 0 
	-800 0 -15.735499 -174.97062 -800 0 -1.2156606 157.11773 
19.59 -4.1221487 -62.054352 -800 0 -56.467208 56.482143 -800 0 
	-800 0 -2.5865266 -53.816584 -800 0 -15.486975 -175.69209 
	-56.467208 56.482143 -800 0 -0.01329755 178.42313 -800 0 
	-800 0 -15.486975 -175.69209 -800 0 -1.2852544 156.95404 
19.6 -4.1343956 -62.831181 -800 0 -56.490241 57.129789 -800 0 
	-800 0 -2.5692737 -54.273276 -800 0 -15.235474 -176.47436 
	-56.490241 57.129789 -800 0 -0.013306308 178.42158 -800 0 
	-800 0 -15.235474 -176.47436 -800 0 -1.3594563 156.80493 
19.61 -4.1468399 -63.609849 -800 0 -56.508768 57.778888 -800 0 
	-800 0 -2.5490501 -54.780946 -800 0 -14.99963 -177.55762 
	-56.508768 57.778888 -800 0 -0.013316474 178.42006 -800 0 
	-800 0 -14.99963 -177.55762 -800 0 -1.4431735 156.73427 
19.62 -4.1595943 -64.390583 -800 0 -56.523868 58.424795 -800 0 
	-800 0 -2.5265294 -55.294201 -800 0 -14.764346 -178.7126 
	-56.523868 58.424795 -800 0 -0.013326533 178.41853 -800 0 
	-800 0 -14.764346 -178.7126 -800 0 -1.5313693 156.69565 
19.63 -4.1726613 -65.173322 -800 0 -56.535574 59.066569 -800 0 
	-800 0 -2.5016614 -55.814843 -800 0 -14.530481 -179.94118 
	-56.535574 59.066569 -800 0 -0.013336486 178.41701 -800 0 
	-800 0 -14.530481 -179.94118 -800 0 -1.6238964 156.69432 
19.64 -4.186043 -65.958004 -800 0 -56.543927 59.703289 -800 0 
	-800 0 -2.4744315 -56.344842 -800 0 -14.298961 178.75527 
	-56.543927 59.703289 -800 0 -0.013346336 178.41549 -800 0 
	-800 0 -14.298961 178.75527 -800 0 -1.7204846 156.73591 
19.65 -4.1997409 -66.744564 -800 0 -56.54898 60.334055 -800 0 
	-800 0 -2.4448679 -56.886304 -800 0 -14.070776 177.376 
	-56.54898 60.334055 -800 0 -0.013356081 178.41396 -800 0 
	-800 0 -14.070776 177.376 -800 0 -1.8207163 156.82631 
19.66 -4.213756 -67.532936 -800 0 -56.550791 60.957994 -800 0 
	-800 0 -2.4130485 -57.441432 -800 0 -13.84697 175.92096 
	-56.550791 60.957994 -800 0 -0.013365724 178.41244 -800 0 
	-800 0 -13.84697 175.92096 -800 0 -1.9240014 156.97155 
19.67 -4.2280888 -68.323053 -800 0 -56.549428 61.574266 -800 0 
	-800 0 -2.379107 -58.012465 -800 0 -13.628625 174.39089 
	-56.549428 61.574266 -800 0 -0.013375265 178.41091 -800 0 
	-800 0 -13.628625 174.39089 -800 0 -2.029555 157.17758 
19.68 -4.2427391 -69.114848 -800 0 -56.544967 62.182067 -800 0 
	-800 0 -2.3432371 -58.601613 -800 0 -13.416848 172.7874 
	-56.544967 62.182067 -800 0 -0.013384704 178.40939 -800 0 
	-800 0 -13.416848 172.7874 -800 0 -2.1363794 157.44998 
19.69 -4.2577062 -69.908251 -800 0 -56.537491 62.780629 -800 0 
	-800 0 -2.3056949 -59.210973 -800 0 -13.212753 171.11303 
	-56.537491 62.780629 -800 0 -0.013394043 178.40786 -800 0 
	-800 0 -13.212753 171.11303 -800 0 -2.2432548 157.79364 
19.7 -4.2729888 -70.703192 -800 0 -56.527086 63.369229 -800 0 
	-800 0 -2.2667979 -59.842441 -800 0 -13.017435 169.37131 
	-56.527086 63.369229 -800 0 -0.013403281 178.40634 -800 0 
	-800 0 -13.017435 169.37131 -800 0 -2.3487421 158.21239 
19.71 -4.2882983 -71.49809 -800 0 -56.513732 63.960185 -800 0 
	-800 0 -2.2254357 -60.489683 -800 0 -12.82168 167.60187 
	-56.513732 63.960185 -800 0 -0.013414004 178.40484 -800 0 
	-800 0 -12.82168 167.60187 -800 0 -2.4537379 158.67203 
19.72 -4.3039276 -72.29421 -800 0 -56.49763 64.539526 -800 0 
	-800 0 -2.183155 -61.162192 -800 0 -12.635917 165.77026 
	-56.49763 64.539526 -800 0 -0.013424613 178.40333 -800 0 
	-800 0 -12.635917 165.77026 -800 0 -2.5549708 159.21017 
19.73 -4.3198741 -73.091478 -800 0 -56.478883 65.106669 -800 0 
	-800 0 -2.1404084 -61.86111 -800 0 -12.461108 163.8822 
	-56.478883 65.106669 -800 0 -0.013435106 178.40183 -800 0 
	-800 0 -12.461108 163.8822 -800 0 -2.650577 159.8264 
19.74 -4.3361348 -73.889824 -800 0 -56.457599 65.661081 -800 0 
	-800 0 -2.0976847 -62.587092 -800 0 -12.298116 161.94431 
	-56.457599 65.661081 -800 0 -0.013445486 178.40033 -800 0 
	-800 0 -12.298116 161.94431 -800 0 -2.7386196 160.51786 
19.75 -4.3527062 -74.689175 -800 0 -56.433887 66.202275 -800 0 
	-800 0 -2.0554929 -63.340246 -800 0 -12.147677 159.96399 
	-56.433887 66.202275 -800 0 -0.013455751 178.39883 -800 0 
	-800 0 -12.147677 159.96399 -800 0 -2.8171786 161.27902 
19.76 -4.3695839 -75.48946 -800 0 -56.407859 66.729814 -800 0 
	-800 0 -2.0143451 -64.120113 -800 0 -12.010378 157.94932 
	-56.407859 66.729814 -800 0 -0.013465903 178.39732 -800 0 
	-800 0 -12.010378 157.94932 -800 0 -2.8844563 162.10159 
19.77 -4.3867632 -76.290609 -800 0 -56.37963 67.243308 -800 0 
	-800 0 -1.9747381 -64.925662 -800 0 -11.886643 155.90886 
	-56.37963 67.243308 -800 0 -0.013475939 178.39582 -800 0 
	-800 0 -11.886643 155.90886 -800 0 -2.9388893 162.97471 
19.78 -4.4042385 -77.092553 -800 0 -56.349315 67.742413 -800 0 
	-800 0 -1.9371356 -65.755322 -800 0 -11.776718 153.85146 
	-56.349315 67.742413 -800 0 -0.013485861 178.39432 -800 0 
	-800 0 -11.776718 153.85146 -800 0 -2.9792526 163.88531 
19.79 -4.4220039 -77.895224 -800 0 -56.31703 68.226831 -800 0 
	-800 0 -1.9019518 -66.607047 -800 0 -11.680666 151.78606 
	-56.31703 68.226831 -800 0 -0.013495667 178.39281 -800 0 
	-800 0 -11.680666 151.78606 -800 0 -3.0047447 164.81873 
19.8 -4.4400525 -78.698556 -800 0 -56.282892 68.69631 -800 0 
	-800 0 -1.8695389 -67.478394 -800 0 -11.598372 149.72148 
	-56.282892 68.69631 -800 0 -0.013505356 178.39131 -800 0 
	-800 0 -11.598372 149.72148 -800 0 -3.0150416 165.75949 
19.81 -4.4582326 -79.514031 -800 0 -56.23095 69.122171 -800 0 
	-800 0 -1.8486183 -68.426449 -800 0 -11.570185 147.57278 
	-56.23095 69.122171 -800 0 -0.013514843 178.38982 -800 0 
	-800 0 -11.570185 147.57278 -800 0 -2.9923508 166.71055 
19.82 -4.4765703 -80.33038 -800 0 -56.177625 69.534004 -800 0 
	-800 0 -1.8316957 -69.382012 -800 0 -11.555028 145.46245 
	-56.177625 69.534004 -800 0 -0.013524244 178.38834 -800 0 
	-800 0 -11.555028 145.46245 -800 0 -2.9554132 167.61625 
19.83 -4.4950548 -81.147531 -800 0 -56.123027 69.931648 -800 0 
	-800 0 -1.8187158 -70.341671 -800 0 -11.551929 143.39706 
	-56.123027 69.931648 -800 0 -0.013533555 178.38686 -800 0 
	-800 0 -11.551929 143.39706 -800 0 -2.9059783 168.46526 
19.84 -4.5136745 -81.965417 -800 0 -56.067269 70.314984 -800 0 
	-800 0 -1.8095494 -71.302285 -800 0 -11.559839 141.38206 
	-56.067269 70.314984 -800 0 -0.013542777 178.38538 -800 0 
	-800 0 -11.559839 141.38206 -800 0 -2.8459826 169.24929 
19.85 -4.5324175 -82.783972 -800 0 -56.010458 70.683929 -800 0 
	-800 0 -1.8040075 -72.261051 -800 0 -11.577667 139.42175 
	-56.010458 70.683929 -800 0 -0.013551906 178.38389 -800 0 
	-800 0 -11.577667 139.42175 -800 0 -2.7774227 169.96311 
19.86 -4.5512712 -83.603132 -800 0 -55.952702 71.038442 -800 0 
	-800 0 -1.8018554 -73.215542 -800 0 -11.604311 137.51932 
	-55.952702 71.038442 -800 0 -0.013560941 178.38241 -800 0 
	-800 0 -11.604311 137.51932 -800 0 -2.7022482 170.60422 
19.87 -4.5702226 -84.422837 -800 0 -55.894109 71.378514 -800 0 
	-800 0 -1.8028267 -74.163718 -800 0 -11.638678 135.67697 
	-55.894109 71.378514 -800 0 -0.01356988 178.38092 -800 0 
	-800 0 -11.638678 135.67697 -800 0 -2.6222808 171.17252 
19.88 -4.5892584 -85.243028 -800 0 -55.834782 71.704175 -800 0 
	-800 0 -1.8066359 -75.103926 -800 0 -11.679712 133.89595 
	-55.834782 71.704175 -800 0 -0.01357872 178.37944 -800 0 
	-800 0 -11.679712 133.89595 -800 0 -2.5391602 171.66976 
19.89 -4.6083647 -86.063651 -800 0 -55.774824 72.015489 -800 0 
	-800 0 -1.8129896 -76.034878 -800 0 -11.726407 132.17666 
	-55.774824 72.015489 -800 0 -0.013587461 178.37795 -800 0 
	-800 0 -11.726407 132.17666 -800 0 -2.4543149 172.09912 
19.9 -4.6275271 -86.884655 -800 0 -55.714335 72.312556 -800 0 
	-800 0 -1.8215951 -76.955621 -800 0 -11.777821 130.51886 
	-55.714335 72.312556 -800 0 -0.013596101 178.37647 -800 0 
	-800 0 -11.777821 130.51886 -800 0 -2.368953 172.46477 
19.91 -4.6482719 -87.692819 -800 0 -55.665158 72.571805 -800 0 
	-800 0 -1.8248712 -77.887162 -800 0 -11.811877 128.84585 
	-55.665158 72.571805 -800 0 -0.013607101 178.375 -800 0 
	-800 0 -11.811877 128.84585 -800 0 -2.2896082 172.81161 
19.92 -4.6692072 -88.501247 -800 0 -55.615318 72.816556 -800 0 
	-800 0 -1.8301763 -78.8103 -800 0 -11.850342 127.22789 
	-55.615318 72.816556 -800 0 -0.013617956 178.37353 -800 0 
	-800 0 -11.850342 127.22789 -800 0 -2.21034 173.10452 
19.93 -4.6903204 -89.309917 -800 0 -55.564915 73.047034 -800 0 
	-800 0 -1.8372659 -79.724411 -800 0 -11.89246 125.66431 
	-55.564915 73.047034 -800 0 -0.013628668 178.37206 -800 0 
	-800 0 -11.89246 125.66431 -800 0 -2.131905 173.34765 
19.94 -4.7115985 -90.118812 -800 0 -55.514044 73.263498 -800 0 
	-800 0 -1.8459057 -80.629093 -800 0 -11.937535 124.15404 
	-55.514044 73.263498 -800 0 -0.013639235 178.37059 -800 0 
	-800 0 -11.937535 124.15404 -800 0 -2.0549064 173.54528 
19.95 -4.7330285 -90.927915 -800 0 -55.462795 73.466232 -800 0 
	-800 0 -1.8558746 -81.524135 -800 0 -11.984938 122.69569 
	-55.462795 73.466232 -800 0 -0.013649658 178.36912 -800 0 
	-800 0 -11.984938 122.69569 -800 0 -1.9798115 173.70169 
19.96 -4.754597 -91.737217 -800 0 -55.411257 73.655552 -800 0 
	-800 0 -1.8669671 -82.409483 -800 0 -12.0341 121.28764 
	-55.411257 73.655552 -800 0 -0.013659938 178.36765 -800 0 
	-800 0 -12.0341 121.28764 -800 0 -1.9069695 173.82106 
19.97 -4.7762903 -92.546709 -800 0 -55.359513 73.831794 -800 0 
	-800 0 -1.8789938 -83.285216 -800 0 -12.084517 119.92809 
	-55.359513 73.831794 -800 0 -0.013670076 178.36618 -800 0 
	-800 0 -12.084517 119.92809 -800 0 -1.836629 173.90735 
19.98 -4.7980947 -93.356388 -800 0 -55.307644 73.995324 -800 0 
	-800 0 -1.891783 -84.151518 -800 0 -12.135741 118.61511 
	-55.307644 73.995324 -800 0 -0.013680072 178.36471 -800 0 
	-800 0 -12.135741 118.61511 -800 0 -1.7689558 173.96426 
19.99 -4.8199963 -94.166256 -800 0 -55.255722 74.146525 -800 0 
	-800 0 -1.9051796 -85.008655 -800 0 -12.18738 117.34672 
	-55.255722 74.146525 -800 0 -0.013689928 178.36323 -800 0 
	-800 0 -12.18738 117.34672 -800 0 -1.7040472 173.99523 
20 -4.8419808 -94.976316 -800 0 -55.203819 74.285803 -800 0 
	-800 0 -1.9190453 -85.856954 -800 0 -12.239093 116.1209 
	-55.203819 74.285803 -800 0 -0.013699643 178.36176 -800 0 
	-800 0 -12.239093 116.1209 -800 0 -1.6419462 174.00337 
20.01 -4.8632905 -95.786524 -800 0 -55.147164 74.414523 -800 0 
	-800 0 -1.9623799 -86.719959 -800 0 -12.369172 114.95892 
	-55.147164 74.414523 -800 0 -0.013710253 178.36031 -800 0 
	-800 0 -12.369172 114.95892 -800 0 -1.5709812 173.8986 
20.02 -4.8846249 -96.596733 -800 0 -55.090707 74.532325 -800 0 
	-800 0 -2.0050056 -87.568484 -800 0 -12.495021 113.84692 
	-55.090707 74.532325 -800 0 -0.013720728 178.35886 -800 0 
	-800 0 -12.495021 113.84692 -800 0 -1.5049352 173.78104 
20.03 -4.9059698 -97.406952 -800 0 -55.034501 74.639652 -800 0 
	-800 0 -2.0468689 -88.403951 -800 0 -12.616598 112.78083 
	-55.034501 74.639652 -800 0 -0.013731069 178.35741 -800 0 
	-800 0 -12.616598 112.78083 -800 0 -1.443436 173.65342 
20.04 -4.9273111 -98.217195 -800 0 -54.978593 74.736958 -800 0 
	-800 0 -2.0879347 -89.227659 -800 0 -12.733899 111.75694 
	-54.978593 74.736958 -800 0 -0.013741276 178.35595 -800 0 
	-800 0 -12.733899 111.75694 -800 0 -1.3861328 173.51801 
20.05 -4.9486346 -99.027476 -800 0 -54.923027 74.824697 -800 0 
	-800 0 -2.1281827 -90.040788 -800 0 -12.846948 110.77185 
	-54.923027 74.824697 -800 0 -0.01375135 178.3545 -800 0 
	-800 0 -12.846948 110.77185 -800 0 -1.3326978 173.37665 
20.06 -4.969926 -99.837817 -800 0 -54.867838 74.903326 -800 0 
	-800 0 -2.167604 -90.844404 -800 0 -12.955793 109.8225 
	-54.867838 74.903326 -800 0 -0.013761292 178.35305 -800 0 
	-800 0 -12.955793 109.8225 -800 0 -1.2828273 173.23086 
20.07 -4.9911713 -100.64824 -800 0 -54.813058 74.973301 -800 0 
	-800 0 -2.2061993 -91.639474 -800 0 -13.060496 108.90611 
	-54.813058 74.973301 -800 0 -0.0137711 178.35159 -800 0 
	-800 0 -13.060496 108.90611 -800 0 -1.2362406 173.08189 
20.08 -5.0123564 -101.45877 -800 0 -54.758713 75.035069 -800 0 
	-800 0 -2.243976 -92.426872 -800 0 -13.161131 108.02013 
	-54.758713 75.035069 -800 0 -0.013780775 178.35014 -800 0 
	-800 0 -13.161131 108.02013 -800 0 -1.1926795 172.93076 
20.09 -5.0334674 -102.26945 -800 0 -54.704823 75.089069 -800 0 
	-800 0 -2.2809472 -93.207386 -800 0 -13.257782 107.16229 
	-54.704823 75.089069 -800 0 -0.013790316 178.34868 -800 0 
	-800 0 -13.257782 107.16229 -800 0 -1.1519069 172.77831 
20.1 -5.0544905 -103.0803 -800 0 -54.651403 75.135728 -800 0 
	-800 0 -2.3171298 -93.981727 -800 0 -13.350538 106.33049 
	-54.651403 75.135728 -800 0 -0.013799722 178.34722 -800 0 
	-800 0 -13.350538 106.33049 -800 0 -1.1137056 172.62523 
20.11 -5.0753937 -103.89067 -800 0 -54.595737 75.159297 -800 0 
	-800 0 -2.3358779 -94.70924 -800 0 -13.400793 105.62579 
	-54.595737 75.159297 -800 0 -0.013810186 178.34579 -800 0 
	-800 0 -13.400793 105.62579 -800 0 -1.0846474 172.48764 
20.12 -5.0961877 -104.70126 -800 0 -54.540533 75.176548 -800 0 
	-800 0 -2.3540939 -95.433849 -800 0 -13.448711 104.93688 
	-54.540533 75.176548 -800 0 -0.013820511 178.34435 -800 0 
	-800 0 -13.448711 104.93688 -800 0 -1.0571347 172.34989 
20.13 -5.1168596 -105.51211 -800 0 -54.485798 75.187861 -800 0 
	-800 0 -2.3717869 -96.155806 -800 0 -13.494333 104.26287 
	-54.485798 75.187861 -800 0 -0.013830695 178.34291 -800 0 
	-800 0 -13.494333 104.26287 -800 0 -1.0310696 172.21224 
20.14 -5.1373965 -106.32327 -800 0 -54.431531 75.193595 -800 0 
	-800 0 -2.3889664 -96.875341 -800 0 -13.537702 103.60296 
	-54.431531 75.193595 -800 0 -0.013840738 178.34147 -800 0 
	-800 0 -13.537702 103.60296 -800 0 -1.0063607 172.07491 
20.15 -5.1577859 -107.1348 -800 0 -54.377732 75.194091 -800 0 
	-800 0 -2.405643 -97.592662 -800 0 -13.578858 102.95638 
	-54.377732 75.194091 -800 0 -0.013850636 178.34003 -800 0 
	-800 0 -13.578858 102.95638 -800 0 -0.98292256 171.93809 
20.16 -5.1780157 -107.94674 -800 0 -54.324397 75.189666 -800 0 
	-800 0 -2.4218277 -98.307962 -800 0 -13.617844 102.32242 
	-54.324397 75.189666 -800 0 -0.013860389 178.33859 -800 0 
	-800 0 -13.617844 102.32242 -800 0 -0.96067565 171.80192 
20.17 -5.1980736 -108.75916 -800 0 -54.27152 75.180618 -800 0 
	-800 0 -2.4375317 -99.021414 -800 0 -13.654699 101.70043 
	-54.27152 75.180618 -800 0 -0.013869994 178.33715 -800 0 
	-800 0 -13.654699 101.70043 -800 0 -0.93954573 171.66651 
20.18 -5.2179481 -109.57211 -800 0 -54.219093 75.167223 -800 0 
	-800 0 -2.4527666 -99.733176 -800 0 -13.689465 101.08979 
	-54.219093 75.167223 -800 0 -0.013879448 178.33571 -800 0 
	-800 0 -13.689465 101.08979 -800 0 -0.91946361 171.53197 
20.19 -5.2376276 -110.38565 -800 0 -54.167109 75.149738 -800 0 
	-800 0 -2.4675438 -100.44339 -800 0 -13.722181 100.48993 
	-54.167109 75.149738 -800 0 -0.01388875 178.33426 -800 0 
	-800 0 -13.722181 100.48993 -800 0 -0.90036478 171.39837 
20.2 -5.2571011 -111.19984 -800 0 -54.115558 75.128401 -800 0 
	-800 0 -2.4818749 -101.15219 -800 0 -13.752885 99.900312 
	-54.115558 75.128401 -800 0 -0.013897898 178.33282 -800 0 
	-800 0 -13.752885 99.900312 -800 0 -0.88218911 171.26576 
20.21 -5.276472 -112.01345 -800 0 -54.061863 75.084462 -800 0 
	-800 0 -2.4933765 -101.82173 -800 0 -13.778336 99.441858 
	-54.061863 75.084462 -800 0 -0.013908127 178.3314 -800 0 
	-800 0 -13.778336 99.441858 -800 0 -0.86817636 171.12225 
20.22 -5.2956304 -112.82782 -800 0 -54.008539 75.037318 -800 0 
	-800 0 -2.5043978 -102.49075 -800 0 -13.801956 98.988686 
	-54.008539 75.037318 -800 0 -0.013918197 178.32997 -800 0 
	-800 0 -13.801956 98.988686 -800 0 -0.85480333 170.98052 
20.23 -5.3145667 -113.64302 -800 0 -53.955576 74.987159 -800 0 
	-800 0 -2.514952 -103.1593 -800 0 -13.823787 98.54054 
	-53.955576 74.987159 -800 0 -0.013928107 178.32855 -800 0 
	-800 0 -13.823787 98.54054 -800 0 -0.84203252 170.84052 
20.24 -5.3332716 -114.45913 -800 0 -53.902967 74.934164 -800 0 
	-800 0 -2.5250516 -103.82743 -800 0 -13.843867 98.097177 
	-53.902967 74.934164 -800 0 -0.013937857 178.32712 -800 0 
	-800 0 -13.843867 98.097177 -800 0 -0.82982911 170.70219 
20.25 -5.3517359 -115.27622 -800 0 -53.850701 74.878498 -800 0 
	-800 0 -2.5347088 -104.49516 -800 0 -13.862236 97.658371 
	-53.850701 74.878498 -800 0 -0.013947444 178.32569 -800 0 
	-800 0 -13.862236 97.658371 -800 0 -0.81816069 170.56546 
20.26 -5.369951 -116.09437 -800 0 -53.798771 74.820315 -800 0 
	-800 0 -2.5439353 -105.16253 -800 0 -13.878931 97.223904 
	-53.798771 74.820315 -800 0 -0.01395687 178.32426 -800 0 
	-800 0 -13.878931 97.223904 -800 0 -0.80699712 170.43026 
20.27 -5.3879084 -116.91366 -800 0 -53.747167 74.75976 -800 0 
	-800 0 -2.5527419 -105.82956 -800 0 -13.893986 96.793571 
	-53.747167 74.75976 -800 0 -0.013966134 178.32283 -800 0 
	-800 0 -13.893986 96.793571 -800 0 -0.79631036 170.29653 
20.28 -5.4056001 -117.73416 -800 0 -53.695881 74.696967 -800 0 
	-800 0 -2.5611393 -106.49628 -800 0 -13.907437 96.36718 
	-53.695881 74.696967 -800 0 -0.013975236 178.3214 -800 0 
	-800 0 -13.907437 96.36718 -800 0 -0.78607435 170.16421 
20.29 -5.4230182 -118.55594 -800 0 -53.644906 74.632062 -800 0 
	-800 0 -2.5691377 -107.1627 -800 0 -13.919317 95.944549 
	-53.644906 74.632062 -800 0 -0.013984177 178.31997 -800 0 
	-800 0 -13.919317 95.944549 -800 0 -0.77626483 170.03322 
20.3 -5.4401552 -119.3791 -800 0 -53.594234 74.565166 -800 0 
	-800 0 -2.5767466 -107.82884 -800 0 -13.92966 95.525506 
	-53.594234 74.565166 -800 0 -0.013992959 178.31854 -800 0 
	-800 0 -13.92966 95.525506 -800 0 -0.76685922 169.90352 
20.31 -5.4572197 -120.20173 -800 0 -53.5413 74.475356 -800 0 
	-800 0 -2.5880727 -108.52177 -800 0 -13.946685 95.092942 
	-53.5413 74.475356 -800 0 -0.014002846 178.31712 -800 0 
	-800 0 -13.946685 95.092942 -800 0 -0.75794904 169.76985 
20.32 -5.4740115 -121.02586 -800 0 -53.488599 74.384008 -800 0 
	-800 0 -2.5989513 -109.21467 -800 0 -13.961952 94.663878 
	-53.488599 74.384008 -800 0 -0.014012574 178.31571 -800 0 
	-800 0 -13.961952 94.663878 -800 0 -0.74942297 169.63759 
20.33 -5.4905246 -121.85157 -800 0 -53.436126 74.29123 -800 0 
	-800 0 -2.609392 -109.90755 -800 0 -13.975499 94.238149 
	-53.436126 74.29123 -800 0 -0.014022144 178.31429 -800 0 
	-800 0 -13.975499 94.238149 -800 0 -0.74126082 169.50667 
20.34 -5.5067531 -122.67897 -800 0 -53.383874 74.197123 -800 0 
	-800 0 -2.6194039 -110.60043 -800 0 -13.987362 93.815603 
	-53.383874 74.197123 -800 0 -0.014031558 178.31287 -800 0 
	-800 0 -13.987362 93.815603 -800 0 -0.73344389 169.377 
20.35 -5.5226913 -123.50812 -800 0 -53.331837 74.101786 -800 0 
	-800 0 -2.6289955 -111.29333 -800 0 -13.997577 93.396097 
	-53.331837 74.101786 -800 0 -0.014040817 178.31145 -800 0 
	-800 0 -13.997577 93.396097 -800 0 -0.72595481 169.24853 
20.36 -5.5383338 -124.33911 -800 0 -53.28001 74.005311 -800 0 
	-800 0 -2.6381753 -111.98626 -800 0 -14.006177 92.979498 
	-53.28001 74.005311 -800 0 -0.014049924 178.31003 -800 0 
	-800 0 -14.006177 92.979498 -800 0 -0.71877742 169.12117 
20.37 -5.5536752 -125.17204 -800 0 -53.228387 73.907786 -800 0 
	-800 0 -2.6469509 -112.67925 -800 0 -14.013196 92.565681 
	-53.228387 73.907786 -800 0 -0.01405888 178.30861 -800 0 
	-800 0 -14.013196 92.565681 -800 0 -0.71189674 168.99486 
20.38 -5.5687105 -126.00698 -800 0 -53.176963 73.809294 -800 0 
	-800 0 -2.6553298 -113.37228 -800 0 -14.018665 92.154532 
	-53.176963 73.809294 -800 0 -0.014067687 178.30719 -800 0 
	-800 0 -14.018665 92.154532 -800 0 -0.70529882 168.86952 
20.39 -5.5834346 -126.84402 -800 0 -53.12573 73.709915 -800 0 
	-800 0 -2.6633191 -114.06539 -800 0 -14.022615 91.745943 
	-53.12573 73.709915 -800 0 -0.014076346 178.30577 -800 0 
	-800 0 -14.022615 91.745943 -800 0 -0.69897068 168.74511 
20.4 -5.5978428 -127.68324 -800 0 -53.074683 73.609723 -800 0 
	-800 0 -2.6709255 -114.75858 -800 0 -14.025075 91.339814 
	-53.074683 73.609723 -800 0 -0.014084861 178.30434 -800 0 
	-800 0 -14.025075 91.339814 -800 0 -0.69290025 168.62156 
20.41 -5.6122846 -128.52191 -800 0 -53.02133 73.485291 -800 0 
	-800 0 -2.689252 -115.45675 -800 0 -14.043007 90.937168 
	-53.02133 73.485291 -800 0 -0.014094523 178.30293 -800 0 
	-800 0 -14.043007 90.937168 -800 0 -0.68696471 168.4889 
20.42 -5.6264336 -129.36292 -800 0 -52.968083 73.360416 -800 0 
	-800 0 -2.7071605 -116.15561 -800 0 -14.058984 90.535136 
	-52.968083 73.360416 -800 0 -0.014104043 178.30153 -800 0 
	-800 0 -14.058984 90.535136 -800 0 -0.681285 168.35752 
20.43 -5.6402863 -130.20636 -800 0 -52.914936 73.235169 -800 0 
	-800 0 -2.7246631 -116.85518 -800 0 -14.073047 90.13366 
	-52.914936 73.235169 -800 0 -0.014113422 178.30012 -800 0 
	-800 0 -14.073047 90.13366 -800 0 -0.67584998 168.22734 
20.44 -5.6538391 -131.05231 -800 0 -52.861885 73.109614 -800 0 
	-800 0 -2.741771 -117.55546 -800 0 -14.085235 89.732691 
	-52.861885 73.109614 -800 0 -0.014122663 178.2987 -800 0 
	-800 0 -14.085235 89.732691 -800 0 -0.67064931 168.09826 
20.45 -5.6670884 -131.90088 -800 0 -52.808923 72.983811 -800 0 
	-800 0 -2.7584953 -118.2565 -800 0 -14.095584 89.332184 
	-52.808923 72.983811 -800 0 -0.014131767 178.29729 -800 0 
	-800 0 -14.095584 89.332184 -800 0 -0.66567342 167.97022 
20.46 -5.6800308 -132.75214 -800 0 -52.756047 72.857816 -800 0 
	-800 0 -2.7748464 -118.9583 -800 0 -14.104129 88.932098 
	-52.756047 72.857816 -800 0 -0.014140736 178.29588 -800 0 
	-800 0 -14.104129 88.932098 -800 0 -0.66091339 167.84312 
20.47 -5.6926627 -133.60621 -800 0 -52.703251 72.73168 -800 0 
	-800 0 -2.7908344 -119.66089 -800 0 -14.110906 88.532395 
	-52.703251 72.73168 -800 0 -0.014149571 178.29446 -800 0 
	-800 0 -14.110906 88.532395 -800 0 -0.65636098 167.7169 
20.48 -5.7049808 -134.46315 -800 0 -52.650528 72.605448 -800 0 
	-800 0 -2.806469 -120.3643 -800 0 -14.115944 88.133042 
	-52.650528 72.605448 -800 0 -0.014158274 178.29305 -800 0 
	-800 0 -14.115944 88.133042 -800 0 -0.65200851 167.59149 
20.49 -5.7169817 -135.32308 -800 0 -52.597875 72.479162 -800 0 
	-800 0 -2.8217596 -121.06854 -800 0 -14.119276 87.734009 
	-52.597875 72.479162 -800 0 -0.014166846 178.29163 -800 0 
	-800 0 -14.119276 87.734009 -800 0 -0.64784884 167.46682 
20.5 -5.7286619 -136.18608 -800 0 -52.545284 72.352857 -800 0 
	-800 0 -2.8367153 -121.77364 -800 0 -14.120929 87.335267 
	-52.545284 72.352857 -800 0 -0.014175288 178.29021 -800 0 
	-800 0 -14.120929 87.335267 -800 0 -0.64387535 167.34282 
20.51 -5.7405473 -137.04858 -800 0 -52.49029 72.19984 -800 0 
	-800 0 -2.846534 -122.46307 -800 0 -14.116951 86.98291 
	-52.49029 72.19984 -800 0 -0.014184925 178.28881 -800 0 
	-800 0 -14.116951 86.98291 -800 0 -0.64123131 167.21709 
20.52 -5.7521498 -137.91432 -800 0 -52.435264 72.047089 -800 0 
	-800 0 -2.8560082 -123.15323 -800 0 -14.111542 86.630141 
	-52.435264 72.047089 -800 0 -0.014194434 178.28741 -800 0 
	-800 0 -14.111542 86.630141 -800 0 -0.6387215 167.09186 
20.53 -5.7634674 -138.78342 -800 0 -52.380202 71.894637 -800 0 
	-800 0 -2.8651449 -123.84411 -800 0 -14.104723 86.27696 
	-52.380202 71.894637 -800 0 -0.014203818 178.28601 -800 0 
	-800 0 -14.104723 86.27696 -800 0 -0.63634264 166.96708 
20.54 -5.7744978 -139.65598 -800 0 -52.3251 71.74251 -800 0 
	-800 0 -2.8739511 -124.53572 -800 0 -14.096512 85.923368 
	-52.3251 71.74251 -800 0 -0.014213076 178.2846 -800 0 
	-800 0 -14.096512 85.923368 -800 0 -0.63409169 166.8427 
20.55 -5.7852386 -140.53209 -800 0 -52.269956 71.590732 -800 0 
	-800 0 -2.8824336 -125.22806 -800 0 -14.08693 85.569368 
	-52.269956 71.590732 -800 0 -0.01422221 178.2832 -800 0 
	-800 0 -14.08693 85.569368 -800 0 -0.63196585 166.71866 
20.56 -5.7956877 -141.41187 -800 0 -52.214763 71.439321 -800 0 
	-800 0 -2.8905992 -125.92115 -800 0 -14.075993 85.214959 
	-52.214763 71.439321 -800 0 -0.01423122 178.28179 -800 0 
	-800 0 -14.075993 85.214959 -800 0 -0.62996254 166.59492 
20.57 -5.8058427 -142.2954 -800 0 -52.15952 71.28829 -800 0 
	-800 0 -2.8984547 -126.61498 -800 0 -14.063719 84.86014 
	-52.15952 71.28829 -800 0 -0.014240109 178.28038 -800 0 
	-800 0 -14.063719 84.86014 -800 0 -0.62807936 166.47144 
20.58 -5.8157011 -143.1828 -800 0 -52.104223 71.137647 -800 0 
	-800 0 -2.9060068 -127.30957 -800 0 -14.050124 84.504909 
	-52.104223 71.137647 -800 0 -0.014248875 178.27897 -800 0 
	-800 0 -14.050124 84.504909 -800 0 -0.62631412 166.34816 
20.59 -5.8252607 -144.07417 -800 0 -52.048869 70.987395 -800 0 
	-800 0 -2.9132623 -128.00493 -800 0 -14.035223 84.149262 
	-52.048869 70.987395 -800 0 -0.01425752 178.27756 -800 0 
	-800 0 -14.035223 84.149262 -800 0 -0.62466481 166.22504 
20.6 -5.8345189 -144.96961 -800 0 -51.993454 70.837533 -800 0 
	-800 0 -2.9202278 -128.70107 -800 0 -14.019032 83.793194 
	-51.993454 70.837533 -800 0 -0.014266045 178.27615 -800 0 
	-800 0 -14.019032 83.793194 -800 0 -0.62312958 166.10205 
20.61 -5.8442827 -145.86461 -800 0 -51.935626 70.657074 -800 0 
	-800 0 -2.9288587 -129.3874 -800 0 -14.004394 83.482026 
	-51.935626 70.657074 -800 0 -0.014275501 178.27475 -800 0 
	-800 0 -14.004394 83.482026 -800 0 -0.62318047 165.97391 
20.62 -5.8538024 -146.76392 -800 0 -51.877627 70.477173 -800 0 
	-800 0 -2.9371993 -130.07495 -800 0 -13.988486 83.168834 
	-51.877627 70.477173 -800 0 -0.014284838 178.27335 -800 0 
	-800 0 -13.988486 83.168834 -800 0 -0.62330903 165.84583 
20.63 -5.8630768 -147.66764 -800 0 -51.819457 70.29783 -800 0 
	-800 0 -2.9452569 -130.76371 -800 0 -13.97132 82.853644 
	-51.819457 70.29783 -800 0 -0.014294056 178.27195 -800 0 
	-800 0 -13.97132 82.853644 -800 0 -0.62351559 165.71777 
20.64 -5.8721048 -148.57591 -800 0 -51.761115 70.119042 -800 0 
	-800 0 -2.9530384 -131.45368 -800 0 -13.952907 82.536479 
	-51.761115 70.119042 -800 0 -0.014303154 178.27055 -800 0 
	-800 0 -13.952907 82.536479 -800 0 -0.62380052 165.5897 
20.65 -5.8808852 -149.48883 -800 0 -51.702599 69.940799 -800 0 
	-800 0 -2.9605511 -132.14488 -800 0 -13.933257 82.217359 
	-51.702599 69.940799 -800 0 -0.014312134 178.26914 -800 0 
	-800 0 -13.933257 82.217359 -800 0 -0.62416422 165.46157 
20.66 -5.8894164 -150.40652 -800 0 -51.643912 69.76309 -800 0 
	-800 0 -2.9678021 -132.83729 -800 0 -13.91238 81.896302 
	-51.643912 69.76309 -800 0 -0.014320995 178.26774 -800 0 
	-800 0 -13.91238 81.896302 -800 0 -0.62460718 165.33335 
20.67 -5.8976969 -151.32909 -800 0 -51.585052 69.585898 -800 0 
	-800 0 -2.974799 -133.53094 -800 0 -13.890287 81.573321 
	-51.585052 69.585898 -800 0 -0.014329739 178.26633 -800 0 
	-800 0 -13.890287 81.573321 -800 0 -0.62512989 165.20499 
20.68 -5.9057251 -152.25667 -800 0 -51.526021 69.409202 -800 0 
	-800 0 -2.9815493 -134.22581 -800 0 -13.866987 81.248428 
	-51.526021 69.409202 -800 0 -0.014338365 178.26492 -800 0 
	-800 0 -13.866987 81.248428 -800 0 -0.62573293 165.07647 
20.69 -5.9134989 -153.18935 -800 0 -51.466821 69.232979 -800 0 
	-800 0 -2.9880607 -134.92193 -800 0 -13.842489 80.921632 
	-51.466821 69.232979 -800 0 -0.014346873 178.26351 -800 0 
	-800 0 -13.842489 80.921632 -800 0 -0.62641689 164.94775 
20.7 -5.9210162 -154.12726 -800 0 -51.407452 69.057201 -800 0 
	-800 0 -2.9943411 -135.6193 -800 0 -13.816803 80.592937 
	-51.407452 69.057201 -800 0 -0.014355264 178.2621 -800 0 
	-800 0 -13.816803 80.592937 -800 0 -0.62718243 164.81879 
20.71 -5.9295805 -155.06475 -800 0 -51.345985 68.844946 -800 0 
	-800 0 -3.002843 -136.31862 -800 0 -13.793814 80.277734 
	-51.345985 68.844946 -800 0 -0.014364302 178.2607 -800 0 
	-800 0 -13.793814 80.277734 -800 0 -0.62852592 164.68512 
20.72 -5.9379752 -156.00778 -800 0 -51.284223 68.633145 -800 0 
	-800 0 -3.0111094 -137.01952 -800 0 -13.769581 79.959804 
	-51.284223 68.633145 -800 0 -0.014373222 178.2593 -800 0 
	-800 0 -13.769581 79.959804 -800 0 -0.62994034 164.5512 
20.73 -5.9461996 -156.95649 -800 0 -51.222171 68.421781 -800 0 
	-800 0 -3.0191491 -137.72198 -800 0 -13.744113 79.639162 
	-51.222171 68.421781 -800 0 -0.014382026 178.2579 -800 0 
	-800 0 -13.744113 79.639162 -800 0 -0.63142706 164.41699 
20.74 -5.954253 -157.91101 -800 0 -51.159834 68.210833 -800 0 
	-800 0 -3.0269709 -138.42602 -800 0 -13.717419 79.315823 
	-51.159834 68.210833 -800 0 -0.014390714 178.2565 -800 0 
	-800 0 -13.717419 79.315823 -800 0 -0.63298746 164.28245 
20.75 -5.9621341 -158.87146 -800 0 -51.097216 68.000278 -800 0 
	-800 0 -3.0345839 -139.13164 -800 0 -13.689509 78.989797 
	-51.097216 68.000278 -800 0 -0.014399285 178.25509 -800 0 
	-800 0 -13.689509 78.989797 -800 0 -0.63462294 164.14756 
20.76 -5.9698412 -159.83798 -800 0 -51.034323 67.79009 -800 0 
	-800 0 -3.0419971 -139.83885 -800 0 -13.66039 78.661092 
	-51.034323 67.79009 -800 0 -0.01440774 178.25369 -800 0 
	-800 0 -13.66039 78.661092 -800 0 -0.63633488 164.01228 
20.77 -5.9773722 -160.81069 -800 0 -50.971161 67.580241 -800 0 
	-800 0 -3.04922 -140.54764 -800 0 -13.630073 78.329715 
	-50.971161 67.580241 -800 0 -0.014416078 178.25228 -800 0 
	-800 0 -13.630073 78.329715 -800 0 -0.63812473 163.87658 
20.78 -5.9847245 -161.78973 -800 0 -50.907737 67.370702 -800 0 
	-800 0 -3.056262 -141.25803 -800 0 -13.598566 77.995668 
	-50.907737 67.370702 -800 0 -0.0144243 178.25087 -800 0 
	-800 0 -13.598566 77.995668 -800 0 -0.63999392 163.74043 
20.79 -5.9918951 -162.77521 -800 0 -50.844059 67.161441 -800 0 
	-800 0 -3.0631328 -141.97002 -800 0 -13.565879 77.658952 
	-50.844059 67.161441 -800 0 -0.014432406 178.24946 -800 0 
	-800 0 -13.565879 77.658952 -800 0 -0.64194389 163.6038 
20.8 -5.9988801 -163.76725 -800 0 -50.780134 66.952425 -800 0 
	-800 0 -3.069842 -142.68361 -800 0 -13.53202 77.319567 
	-50.780134 66.952425 -800 0 -0.014440395 178.24805 -800 0 
	-800 0 -13.53202 77.319567 -800 0 -0.64397613 163.46665 
20.81 -6.0076753 -164.75896 -800 0 -50.71461 66.699662 -800 0 
	-800 0 -3.0751008 -143.38651 -800 0 -13.496333 77.028543 
	-50.71461 66.699662 -800 0 -0.014449061 178.24665 -800 0 
	-800 0 -13.496333 77.028543 -800 0 -0.64770777 163.32643 
20.82 -6.0164101 -165.75766 -800 0 -50.648699 66.446968 -800 0 
	-800 0 -3.0801944 -144.09116 -800 0 -13.459611 76.733973 
	-50.648699 66.446968 -800 0 -0.014457613 178.24525 -800 0 
	-800 0 -13.459611 76.733973 -800 0 -0.65150541 163.18549 
20.83 -6.0250825 -166.76351 -800 0 -50.582411 66.194331 -800 0 
	-800 0 -3.0851311 -144.79755 -800 0 -13.421861 76.435863 
	-50.582411 66.194331 -800 0 -0.014466052 178.24385 -800 0 
	-800 0 -13.421861 76.435863 -800 0 -0.6553715 163.04382 
20.84 -6.0336897 -167.77667 -800 0 -50.515754 65.941735 -800 0 
	-800 0 -3.0899196 -145.50567 -800 0 -13.383088 76.134219 
	-50.515754 65.941735 -800 0 -0.014474376 178.24244 -800 0 
	-800 0 -13.383088 76.134219 -800 0 -0.65930847 162.90137 
20.85 -6.042228 -168.79728 -800 0 -50.44874 65.689166 -800 0 
	-800 0 -3.0945685 -146.21554 -800 0 -13.343298 75.829044 
	-50.44874 65.689166 -800 0 -0.014482587 178.24104 -800 0 
	-800 0 -13.343298 75.829044 -800 0 -0.66331876 162.75814 
20.86 -6.0506927 -169.8255 -800 0 -50.381381 65.436607 -800 0 
	-800 0 -3.0990864 -146.92713 -800 0 -13.302498 75.52034 
	-50.381381 65.436607 -800 0 -0.014490684 178.23963 -800 0 
	-800 0 -13.302498 75.52034 -800 0 -0.66740482 162.61408 
20.87 -6.0590783 -170.86148 -800 0 -50.313688 65.184041 -800 0 
	-800 0 -3.1034824 -147.64044 -800 0 -13.260695 75.208109 
	-50.313688 65.184041 -800 0 -0.014498667 178.23822 -800 0 
	-800 0 -13.260695 75.208109 -800 0 -0.6715691 162.46917 
20.88 -6.067378 -171.90536 -800 0 -50.245673 64.931453 -800 0 
	-800 0 -3.1077655 -148.35548 -800 0 -13.217895 74.892351 
	-50.245673 64.931453 -800 0 -0.014506536 178.23681 -800 0 
	-800 0 -13.217895 74.892351 -800 0 -0.67581407 162.32339 
20.89 -6.0755842 -172.9573 -800 0 -50.177349 64.678825 -800 0 
	-800 0 -3.1119446 -149.07222 -800 0 -13.174105 74.573066 
	-50.177349 64.678825 -800 0 -0.01451429 178.2354 -800 0 
	-800 0 -13.174105 74.573066 -800 0 -0.6801422 162.1767 
20.9 -6.0836877 -174.01743 -800 0 -50.10873 64.426141 -800 0 
	-800 0 -3.1160291 -149.79068 -800 0 -13.129332 74.250252 
	-50.10873 64.426141 -800 0 -0.014521929 178.23399 -800 0 
	-800 0 -13.129332 74.250252 -800 0 -0.68455599 162.02908 
20.91 -6.0945806 -175.0771 -800 0 -50.039083 64.122208 -800 0 
	-800 0 -3.1229588 -150.50547 -800 0 -13.08613 73.911494 
	-50.039083 64.122208 -800 0 -0.014530294 178.23259 -800 0 
	-800 0 -13.08613 73.911494 -800 0 -0.68954729 161.88177 
20.92 -6.1055452 -176.14554 -800 0 -49.968988 63.817835 -800 0 
	-800 0 -3.1298643 -151.22202 -800 0 -13.041944 73.568462 
	-49.968988 63.817835 -800 0 -0.01453855 178.23119 -800 0 
	-800 0 -13.041944 73.568462 -800 0 -0.69463874 161.7335 
20.93 -6.1165745 -177.22295 -800 0 -49.898459 63.513033 -800 0 
	-800 0 -3.1367566 -151.94031 -800 0 -12.996778 73.221158 
	-49.898459 63.513033 -800 0 -0.014546696 178.22978 -800 0 
	-800 0 -12.996778 73.221158 -800 0 -0.69983327 161.58424 
20.94 -6.1276604 -178.30952 -800 0 -49.82751 63.207812 -800 0 
	-800 0 -3.1436469 -152.66034 -800 0 -12.950643 72.869582 
	-49.82751 63.207812 -800 0 -0.014554732 178.22838 -800 0 
	-800 0 -12.950643 72.869582 -800 0 -0.70513386 161.43396 
20.95 -6.138793 -179.40546 -800 0 -49.756155 62.902184 -800 0 
	-800 0 -3.1505465 -153.3821 -800 0 -12.903543 72.513734 
	-49.756155 62.902184 -800 0 -0.014562659 178.22697 -800 0 
	-800 0 -12.903543 72.513734 -800 0 -0.71054348 161.28264 
20.96 -6.1499608 179.48904 -800 0 -49.684409 62.59616 -800 0 
	-800 0 -3.1574669 -154.10558 -800 0 -12.855488 72.153615 
	-49.684409 62.59616 -800 0 -0.014570475 178.22556 -800 0 
	-800 0 -12.855488 72.153615 -800 0 -0.71606516 161.13026 
20.97 -6.1611505 178.37379 -800 0 -49.612288 62.289753 -800 0 
	-800 0 -3.1644195 -154.83078 -800 0 -12.806485 71.789227 
	-49.612288 62.289753 -800 0 -0.014578181 178.22416 -800 0 
	-800 0 -12.806485 71.789227 -800 0 -0.72170198 160.97677 
20.98 -6.1723472 177.24858 -800 0 -49.539808 61.982977 -800 0 
	-800 0 -3.171416 -155.55768 -800 0 -12.756542 71.420568 
	-49.539808 61.982977 -800 0 -0.014585775 178.22274 -800 0 
	-800 0 -12.756542 71.420568 -800 0 -0.72745704 160.82216 
20.99 -6.1835338 176.11322 -800 0 -49.466984 61.675845 -800 0 
	-800 0 -3.1784681 -156.28629 -800 0 -12.705667 71.047642 
	-49.466984 61.675845 -800 0 -0.014593259 178.22133 -800 0 
	-800 0 -12.705667 71.047642 -800 0 -0.7333335 160.6664 
21 -6.1946913 174.96752 -800 0 -49.393832 61.368373 -800 0 
	-800 0 -3.1855877 -157.01659 -800 0 -12.653867 70.670449 
	-49.393832 61.368373 -800 0 -0.014600631 178.21992 -800 0 
	-800 0 -12.653867 70.670449 -800 0 -0.73933456 160.50946 
21.01 -6.2073278 173.81935 -800 0 -49.31718 61.012158 -800 0 
	-800 0 -3.1903381 -157.75871 -800 0 -12.596701 70.318532 
	-49.31718 61.012158 -800 0 -0.014608925 178.21852 -800 0 
	-800 0 -12.596701 70.318532 -800 0 -0.74708643 160.34906 
21.02 -6.22005 172.66017 -800 0 -49.240042 60.655483 -800 0 
	-800 0 -3.1951121 -158.50286 -800 0 -12.538666 69.962253 
	-49.240042 60.655483 -800 0 -0.014617114 178.21712 -800 0 
	-800 0 -12.538666 69.962253 -800 0 -0.75497656 160.1872 
21.03 -6.2328374 171.48972 -800 0 -49.162433 60.298396 -800 0 
	-800 0 -3.1999197 -159.24904 -800 0 -12.479767 69.601615 
	-49.162433 60.298396 -800 0 -0.014625199 178.21571 -800 0 
	-800 0 -12.479767 69.601615 -800 0 -0.76300897 160.02383 
21.04 -6.2456669 170.30774 -800 0 -49.084369 59.940945 -800 0 
	-800 0 -3.2047709 -159.99724 -800 0 -12.420011 69.236621 
	-49.084369 59.940945 -800 0 -0.014633179 178.21431 -800 0 
	-800 0 -12.420011 69.236621 -800 0 -0.77118777 159.85895 
21.05 -6.2585125 169.11399 -800 0 -49.005867 59.583181 -800 0 
	-800 0 -3.2096759 -160.74747 -800 0 -12.359403 68.867274 
	-49.005867 59.583181 -800 0 -0.014641053 178.2129 -800 0 
	-800 0 -12.359403 68.867274 -800 0 -0.77951715 159.6925 
21.06 -6.2713457 167.90819 -800 0 -48.926943 59.225154 -800 0 
	-800 0 -3.2146449 -161.49972 -800 0 -12.297951 68.493577 
	-48.926943 59.225154 -800 0 -0.01464882 178.21149 -800 0 
	-800 0 -12.297951 68.493577 -800 0 -0.78800139 159.52446 
21.07 -6.284135 166.6901 -800 0 -48.847613 58.866915 -800 0 
	-800 0 -3.2196884 -162.254 -800 0 -12.235659 68.115533 
	-48.847613 58.866915 -800 0 -0.014656481 178.21008 -800 0 
	-800 0 -12.235659 68.115533 -800 0 -0.79664488 159.3548 
21.08 -6.2968458 165.45945 -800 0 -48.767894 58.508516 -800 0 
	-800 0 -3.2248168 -163.0103 -800 0 -12.172534 67.733146 
	-48.767894 58.508516 -800 0 -0.014664035 178.20867 -800 0 
	-800 0 -12.172534 67.733146 -800 0 -0.8054521 159.18348 
21.09 -6.3094404 164.21599 -800 0 -48.687803 58.150012 -800 0 
	-800 0 -3.2300409 -163.76864 -800 0 -12.108583 67.34642 
	-48.687803 58.150012 -800 0 -0.014671481 178.20725 -800 0 
	-800 0 -12.108583 67.34642 -800 0 -0.81442763 159.01047 
21.1 -6.3218778 162.95947 -800 0 -48.607358 57.791454 -800 0 
	-800 0 -3.2353715 -164.529 -800 0 -12.043813 66.955359 
	-48.607358 57.791454 -800 0 -0.014678819 178.20584 -800 0 
	-800 0 -12.043813 66.955359 -800 0 -0.82357619 158.83574 
21.11 -6.3393564 161.70118 -800 0 -48.526206 57.369076 -800 0 
	-800 0 -3.2438691 -165.28426 -800 0 -11.981762 66.57733 
	-48.526206 57.369076 -800 0 -0.014687052 178.20444 -800 0 
	-800 0 -11.981762 66.57733 -800 0 -0.83352353 158.65672 
21.12 -6.3569643 160.42853 -800 0 -48.444513 56.945907 -800 0 
	-800 0 -3.2525175 -166.0418 -800 0 -11.918921 66.194138 
	-48.444513 56.945907 -800 0 -0.014695187 178.20304 -800 0 
	-800 0 -11.918921 66.194138 -800 0 -0.84365047 158.47586 
21.13 -6.3746626 159.14116 -800 0 -48.362293 56.52203 -800 0 
	-800 0 -3.2613278 -166.80161 -800 0 -11.855293 65.805793 
	-48.362293 56.52203 -800 0 -0.014703225 178.20163 -800 0 
	-800 0 -11.855293 65.805793 -800 0 -0.85396241 158.29312 
21.14 -6.3924082 157.83867 -800 0 -48.27956 56.09753 -800 0 
	-800 0 -3.2703117 -167.56369 -800 0 -11.790885 65.412305 
	-48.27956 56.09753 -800 0 -0.014711165 178.20023 -800 0 
	-800 0 -11.790885 65.412305 -800 0 -0.86446489 158.10847 
21.15 -6.4101536 156.52067 -800 0 -48.19633 55.67249 -800 0 
	-800 0 -3.2794807 -168.32805 -800 0 -11.725701 65.013687 
	-48.19633 55.67249 -800 0 -0.014719006 178.19882 -800 0 
	-800 0 -11.725701 65.013687 -800 0 -0.87516359 157.92187 
21.16 -6.4278467 155.18679 -800 0 -48.112616 55.246999 -800 0 
	-800 0 -3.2888468 -169.09468 -800 0 -11.659746 64.609948 
	-48.112616 55.246999 -800 0 -0.014726748 178.19741 -800 0 
	-800 0 -11.659746 64.609948 -800 0 -0.88606434 157.73327 
21.17 -6.4454306 153.83663 -800 0 -48.028435 54.82114 -800 0 
	-800 0 -3.2984222 -169.86359 -800 0 -11.593024 64.2011 
	-48.028435 54.82114 -800 0 -0.014734391 178.196 -800 0 
	-800 0 -11.593024 64.2011 -800 0 -0.89717313 157.54264 
21.18 -6.4628432 152.46981 -800 0 -47.9438 54.395003 -800 0 
	-800 0 -3.3082192 -170.63478 -800 0 -11.525542 63.787152 
	-47.9438 54.395003 -800 0 -0.014741934 178.19459 -800 0 
	-800 0 -11.525542 63.787152 -800 0 -0.9084961 157.34993 
21.19 -6.4800171 151.08595 -800 0 -47.858728 53.968673 -800 0 
	-800 0 -3.3182505 -171.40825 -800 0 -11.457303 63.368115 
	-47.858728 53.968673 -800 0 -0.014749375 178.19317 -800 0 
	-800 0 -11.457303 63.368115 -800 0 -0.92003958 157.15511 
21.2 -6.4968793 149.68467 -800 0 -47.773234 53.542239 -800 0 
	-800 0 -3.3285292 -172.18401 -800 0 -11.388312 62.944 
	-47.773234 53.542239 -800 0 -0.014756716 178.19176 -800 0 
	-800 0 -11.388312 62.944 -800 0 -0.93181007 156.95813 
21.21 -6.5210296 148.28349 -800 0 -47.688145 53.04105 -800 0 
	-800 0 -3.3381822 -172.95077 -800 0 -11.318463 62.524571 
	-47.688145 53.04105 -800 0 -0.01476505 178.19036 -800 0 
	-800 0 -11.318463 62.524571 -800 0 -0.94524707 156.75818 
21.22 -6.5452973 146.86305 -800 0 -47.602444 52.538572 -800 0 
	-800 0 -3.3481133 -173.71963 -800 0 -11.247916 62.099647 
	-47.602444 52.538572 -800 0 -0.014773297 178.18895 -800 0 
	-800 0 -11.247916 62.099647 -800 0 -0.9589495 156.55585 
21.23 -6.5696139 145.42277 -800 0 -47.516143 52.034912 -800 0 
	-800 0 -3.3583361 -174.4906 -800 0 -11.176673 61.669233 
	-47.516143 52.034912 -800 0 -0.014781459 178.18755 -800 0 
	-800 0 -11.176673 61.669233 -800 0 -0.97292537 156.35109 
21.24 -6.5939037 143.96206 -800 0 -47.429251 51.530182 -800 0 
	-800 0 -3.3688651 -175.26369 -800 0 -11.104738 61.233332 
	-47.429251 51.530182 -800 0 -0.014789533 178.18614 -800 0 
	-800 0 -11.104738 61.233332 -800 0 -0.98718294 156.14387 
21.25 -6.6180835 142.48034 -800 0 -47.34178 51.024492 -800 0 
	-800 0 -3.3797148 -176.0389 -800 0 -11.032114 60.791948 
	-47.34178 51.024492 -800 0 -0.01479752 178.18474 -800 0 
	-800 0 -11.032114 60.791948 -800 0 -1.0017307 155.93413 
21.26 -6.6420621 140.97702 -800 0 -47.253742 50.517952 -800 0 
	-800 0 -3.3909001 -176.81623 -800 0 -10.958804 60.345083 
	-47.253742 50.517952 -800 0 -0.014805418 178.18333 -800 0 
	-800 0 -10.958804 60.345083 -800 0 -1.0165775 155.72183 
21.27 -6.6657398 139.45151 -800 0 -47.165147 50.010675 -800 0 
	-800 0 -3.4024366 -177.59568 -800 0 -10.884811 59.89274 
	-47.165147 50.010675 -800 0 -0.014813229 178.18192 -800 0 
	-800 0 -10.884811 59.89274 -800 0 -1.0317324 155.5069 
21.28 -6.6890078 137.90324 -800 0 -47.076006 49.502772 -800 0 
	-800 0 -3.4143401 -178.37728 -800 0 -10.810139 59.43492 
	-47.076006 49.502772 -800 0 -0.014820951 178.18051 -800 0 
	-800 0 -10.810139 59.43492 -800 0 -1.0472048 155.2893 
21.29 -6.7117482 136.33165 -800 0 -46.986332 48.994356 -800 0 
	-800 0 -3.4266268 -179.16101 -800 0 -10.73479 58.971624 
	-46.986332 48.994356 -800 0 -0.014828583 178.17909 -800 0 
	-800 0 -10.73479 58.971624 -800 0 -1.0630044 155.06897 
21.3 -6.7338331 134.73618 -800 0 -46.896137 48.485541 -800 0 
	-800 0 -3.4393136 -179.94689 -800 0 -10.658768 58.50285 
	-46.896137 48.485541 -800 0 -0.014836125 178.17768 -800 0 
	-800 0 -10.658768 58.50285 -800 0 -1.0791411 154.84585 
21.31 -6.7663372 133.14267 -800 0 -46.807867 47.890915 -800 0 
	-800 0 -3.4558757 179.26526 -800 0 -10.584577 58.026087 
	-46.807867 47.890915 -800 0 -0.014844755 178.17628 -800 0 
	-800 0 -10.584577 58.026087 -800 0 -1.0963889 154.62364 
21.32 -6.7988199 131.52258 -800 0 -46.718909 47.294149 -800 0 
	-800 0 -3.4729134 178.47507 -800 0 -10.509753 57.543195 
	-46.718909 47.294149 -800 0 -0.014853314 178.17488 -800 0 
	-800 0 -10.509753 57.543195 -800 0 -1.1140134 154.39863 
21.33 -6.8311599 129.87502 -800 0 -46.62927 46.695359 -800 0 
	-800 0 -3.4904456 177.68252 -800 0 -10.434299 57.05417 
	-46.62927 46.695359 -800 0 -0.014861801 178.17348 -800 0 
	-800 0 -10.434299 57.05417 -800 0 -1.1320263 154.17077 
21.34 -6.8632232 128.19913 -800 0 -46.538956 46.094665 -800 0 
	-800 0 -3.5084917 176.88762 -800 0 -10.358217 56.559008 
	-46.538956 46.094665 -800 0 -0.014870217 178.17207 -800 0 
	-800 0 -10.358217 56.559008 -800 0 -1.1504395 153.93999 
21.35 -6.8948621 126.49403 -800 0 -46.447971 45.492187 -800 0 
	-800 0 -3.5270718 176.09037 -800 0 -10.28151 56.057705 
	-46.447971 45.492187 -800 0 -0.01487856 178.17067 -800 0 
	-800 0 -10.28151 56.057705 -800 0 -1.1692658 153.70625 
21.36 -6.9259143 124.75886 -800 0 -46.356323 44.888045 -800 0 
	-800 0 -3.5462066 175.29075 -800 0 -10.20418 55.550254 
	-46.356323 44.888045 -800 0 -0.014886832 178.16926 -800 0 
	-800 0 -10.20418 55.550254 -800 0 -1.188518 153.46948 
21.37 -6.9562024 122.99279 -800 0 -46.264019 44.282361 -800 0 
	-800 0 -3.5659174 174.48877 -800 0 -10.126231 55.036648 
	-46.264019 44.282361 -800 0 -0.01489503 178.16785 -800 0 
	-800 0 -10.126231 55.036648 -800 0 -1.2082095 153.22963 
21.38 -6.9855329 121.19499 -800 0 -46.171063 43.675256 -800 0 
	-800 0 -3.5862264 173.68443 -800 0 -10.047664 54.516878 
	-46.171063 43.675256 -800 0 -0.014903156 178.16644 -800 0 
	-800 0 -10.047664 54.516878 -800 0 -1.2283543 152.98663 
21.39 -7.0136957 119.36468 -800 0 -46.077464 43.066853 -800 0 
	-800 0 -3.6071562 172.87772 -800 0 -9.968484 53.990934 
	-46.077464 43.066853 -800 0 -0.014911209 178.16503 -800 0 
	-800 0 -9.968484 53.990934 -800 0 -1.2489667 152.74043 
21.4 -7.0404631 117.50113 -800 0 -45.983229 42.457273 -800 0 
	-800 0 -3.6287305 172.06864 -800 0 -9.8886926 53.458805 
	-45.983229 42.457273 -800 0 -0.014919188 178.16362 -800 0 
	-800 0 -9.8886926 53.458805 -800 0 -1.2700617 152.49096 
21.41 -7.0818329 115.6407 -800 0 -45.893051 41.752245 -800 0 
	-800 0 -3.651384 171.24544 -800 0 -9.8079638 52.929718 
	-45.893051 41.752245 -800 0 -0.014928321 178.16222 -800 0 
	-800 0 -9.8079638 52.929718 -800 0 -1.29319 152.23651 
21.42 -7.1227054 113.74301 -800 0 -45.802137 41.0437 -800 0 
	-800 0 -3.6746993 170.41945 -800 0 -9.7266342 52.393939 
	-45.802137 41.0437 -800 0 -0.014937399 178.16083 -800 0 
	-800 0 -9.7266342 52.393939 -800 0 -1.3168741 151.97852 
21.43 -7.1628571 111.80683 -800 0 -45.71049 40.331743 -800 0 
	-800 0 -3.6987016 169.59065 -800 0 -9.644706 51.851448 
	-45.71049 40.331743 -800 0 -0.014946424 178.15943 -800 0 
	-800 0 -9.644706 51.851448 -800 0 -1.3411326 151.71691 
21.44 -7.202041 109.83096 -800 0 -45.618111 39.61648 -800 0 
	-800 0 -3.7234173 168.75904 -800 0 -9.5621818 51.302222 
	-45.618111 39.61648 -800 0 -0.014955394 178.15803 -800 0 
	-800 0 -9.5621818 51.302222 -800 0 -1.3659846 151.45163 
21.45 -7.2399856 107.81425 -800 0 -45.525 38.898021 -800 0 
	-800 0 -3.7488735 167.92461 -800 0 -9.4790642 50.746237 
	-45.525 38.898021 -800 0 -0.01496431 178.15663 -800 0 
	-800 0 -9.4790642 50.746237 -800 0 -1.39145 151.18259 
21.46 -7.2763937 105.7556 -800 0 -45.431161 38.176473 -800 0 
	-800 0 -3.7750986 167.08736 -800 0 -9.395356 50.183466 
	-45.431161 38.176473 -800 0 -0.014973172 178.15523 -800 0 
	-800 0 -9.395356 50.183466 -800 0 -1.4175495 150.90973 
21.47 -7.3109415 103.65398 -800 0 -45.336594 37.451945 -800 0 
	-800 0 -3.8021218 166.24729 -800 0 -9.3110603 49.613882 
	-45.336594 37.451945 -800 0 -0.01498198 178.15382 -800 0 
	-800 0 -9.3110603 49.613882 -800 0 -1.4443045 150.63296 
21.48 -7.3432776 101.50846 -800 0 -45.241303 36.724546 -800 0 
	-800 0 -3.8299736 165.40438 -800 0 -9.2261802 49.037455 
	-45.241303 36.724546 -800 0 -0.014990734 178.15242 -800 0 
	-800 0 -9.2261802 49.037455 -800 0 -1.4717374 150.35222 
21.49 -7.3730227 99.318236 -800 0 -45.145288 35.994386 -800 0 
	-800 0 -3.8586855 164.55865 -800 0 -9.1407192 48.454153 
	-45.145288 35.994386 -800 0 -0.014999433 178.15101 -800 0 
	-800 0 -9.1407192 48.454153 -800 0 -1.4998713 150.06741 
21.5 -7.3997699 97.082635 -800 0 -45.048552 35.261575 -800 0 
	-800 0 -3.8882902 163.71007 -800 0 -9.0546808 47.863943 
	-45.048552 35.261575 -800 0 -0.015008079 178.1496 -800 0 
	-800 0 -9.0546808 47.863943 -800 0 -1.5287304 149.77847 
21.51 -7.4479181 94.854096 -800 0 -44.959417 34.423197 -800 0 
	-800 0 -3.9175601 162.86853 -800 0 -8.9677529 47.267703 
	-44.959417 34.423197 -800 0 -0.015017868 178.14822 -800 0 
	-800 0 -8.9677529 47.267703 -800 0 -1.5606594 149.48898 
21.52 -7.494365 92.57426 -800 0 -44.8696 33.579263 -800 0 
	-800 0 -3.9477917 162.02446 -800 0 -8.8803121 46.663999 
	-44.8696 33.579263 -800 0 -0.015027615 178.14683 -800 0 
	-800 0 -8.8803121 46.663999 -800 0 -1.5934498 149.19522 
21.53 -7.5386961 90.241761 -800 0 -44.779102 32.729846 -800 0 
	-800 0 -3.979022 161.17788 -800 0 -8.7923623 46.052779 
	-44.779102 32.729846 -800 0 -0.01503732 178.14544 -800 0 
	-800 0 -8.7923623 46.052779 -800 0 -1.6271321 148.89712 
21.54 -7.5804586 87.855365 -800 0 -44.687924 31.875024 -800 0 
	-800 0 -4.0112896 160.3288 -800 0 -8.7039078 45.433991 
	-44.687924 31.875024 -800 0 -0.015046983 178.14405 -800 0 
	-800 0 -8.7039078 45.433991 -800 0 -1.6617385 148.5946 
21.55 -7.6191609 85.414008 -800 0 -44.596067 31.014873 -800 0 
	-800 0 -4.0446344 159.47726 -800 0 -8.6149535 44.807579 
	-44.596067 31.014873 -800 0 -0.015056604 178.14265 -800 0 
	-800 0 -8.6149535 44.807579 -800 0 -1.6973021 148.28759 
21.56 -7.6542723 82.916839 -800 0 -44.50353 30.149469 -800 0 
	-800 0 -4.079098 158.62327 -800 0 -8.5255043 44.173486 
	-44.50353 30.149469 -800 0 -0.015066183 178.14126 -800 0 
	-800 0 -8.5255043 44.173486 -800 0 -1.7338576 147.976 
21.57 -7.6852239 80.363257 -800 0 -44.410317 29.27889 -800 0 
	-800 0 -4.1147239 157.76686 -800 0 -8.4355656 43.531653 
	-44.410317 29.27889 -800 0 -0.01507572 178.13986 -800 0 
	-800 0 -8.4355656 43.531653 -800 0 -1.7714414 147.65975 
21.58 -7.7114109 77.752961 -800 0 -44.316427 28.403215 -800 0 
	-800 0 -4.1515571 156.90808 -800 0 -8.3451435 42.882018 
	-44.316427 28.403215 -800 0 -0.015085214 178.13847 -800 0 
	-800 0 -8.3451435 42.882018 -800 0 -1.8100912 147.33876 
21.59 -7.7321956 75.085996 -800 0 -44.221863 27.522522 -800 0 
	-800 0 -4.1896446 156.04696 -800 0 -8.2542441 42.224519 
	-44.221863 27.522522 -800 0 -0.015094665 178.13707 -800 0 
	-800 0 -8.2542441 42.224519 -800 0 -1.8498463 147.01295 
21.6 -7.7469115 72.362801 -800 0 -44.126626 26.636889 -800 0 
	-800 0 -4.2290355 155.18355 -800 0 -8.1628742 41.559089 
	-44.126626 26.636889 -800 0 -0.015104074 178.13567 -800 0 
	-800 0 -8.1628742 41.559089 -800 0 -1.8907479 146.68225 
21.61 -7.7912943 69.647305 -800 0 -44.043416 25.642564 -800 0 
	-800 0 -4.261692 154.26365 -800 0 -8.062279 40.948319 
	-44.043416 25.642564 -800 0 -0.015114476 178.13429 -800 0 
	-800 0 -8.062279 40.948319 -800 0 -1.933858 146.32448 
21.62 -7.8312393 66.867504 -800 0 -43.959782 24.640328 -800 0 
	-800 0 -4.2954308 153.33927 -800 0 -7.9611505 40.330168 
	-43.959782 24.640328 -800 0 -0.015124828 178.13292 -800 0 
	-800 0 -7.9611505 40.330168 -800 0 -1.9782368 145.96027 
21.63 -7.8660435 64.023081 -800 0 -43.87573 23.630235 -800 0 
	-800 0 -4.3302972 152.41037 -800 0 -7.8594954 39.70454 
	-43.87573 23.630235 -800 0 -0.015135129 178.13154 -800 0 
	-800 0 -7.8594954 39.70454 -800 0 -2.0239346 145.58947 
21.64 -7.8949648 61.114155 -800 0 -43.791267 22.612337 -800 0 
	-800 0 -4.366339 151.47692 -800 0 -7.7573207 39.071342 
	-43.791267 22.612337 -800 0 -0.015145375 178.13016 -800 0 
	-800 0 -7.7573207 39.071342 -800 0 -2.0710041 145.21193 
21.65 -7.9172276 58.141339 -800 0 -43.706399 21.586692 -800 0 
	-800 0 -4.4036058 150.53888 -800 0 -7.6546342 38.430472 
	-43.706399 21.586692 -800 0 -0.015155566 178.12878 -800 0 
	-800 0 -7.6546342 38.430472 -800 0 -2.1195003 144.82749 
21.66 -7.9320309 55.105803 -800 0 -43.621134 20.553357 -800 0 
	-800 0 -4.4421501 149.5962 -800 0 -7.5514442 37.781829 
	-43.621134 20.553357 -800 0 -0.0151657 178.1274 -800 0 
	-800 0 -7.5514442 37.781829 -800 0 -2.1694813 144.43598 
21.67 -7.9385589 52.009329 -800 0 -43.535481 19.512392 -800 0 
	-800 0 -4.4820264 148.64886 -800 0 -7.4477595 37.125305 
	-43.535481 19.512392 -800 0 -0.015175775 178.12602 -800 0 
	-800 0 -7.4477595 37.125305 -800 0 -2.2210077 144.03723 
21.68 -7.9359932 48.854354 -800 0 -43.449448 18.46386 -800 0 
	-800 0 -4.5232922 147.69683 -800 0 -7.3435897 36.46079 
	-43.449448 18.46386 -800 0 -0.015185789 178.12464 -800 0 
	-800 0 -7.3435897 36.46079 -800 0 -2.2741435 143.63108 
21.69 -7.9235269 45.644003 -800 0 -43.363042 17.407824 -800 0 
	-800 0 -4.5660076 146.74008 -800 0 -7.2389452 35.788172 
	-43.363042 17.407824 -800 0 -0.01519574 178.12325 -800 0 
	-800 0 -7.2389452 35.788172 -800 0 -2.3289557 143.21734 
21.7 -7.9003814 42.382113 -800 0 -43.276274 16.34435 -800 0 
	-800 0 -4.6102358 145.77858 -800 0 -7.1338369 35.107333 
	-43.276274 16.34435 -800 0 -0.015205626 178.12187 -800 0 
	-800 0 -7.1338369 35.107333 -800 0 -2.3855147 142.79584 
21.71 -7.9120952 39.133148 -800 0 -43.205829 15.186464 -800 0 
	-800 0 -4.6672455 144.88904 -800 0 -7.0396325 34.360414 
	-43.205829 15.186464 -800 0 -0.015216177 178.12051 -800 0 
	-800 0 -7.0396325 34.360414 -800 0 -2.4459718 142.40876 
21.72 -7.9148319 35.825293 -800 0 -43.135476 14.019102 -800 0 
	-800 0 -4.7262914 143.99795 -800 0 -6.9451931 33.603841 
	-43.135476 14.019102 -800 0 -0.015226625 178.11915 -800 0 
	-800 0 -6.9451931 33.603841 -800 0 -2.508408 142.01604 
21.73 -7.9078001 32.461959 -800 0 -43.065233 12.842356 -800 0 
	-800 0 -4.7874555 143.10548 -800 0 -6.8505347 32.837513 
	-43.065233 12.842356 -800 0 -0.015236966 178.11779 -800 0 
	-800 0 -6.8505347 32.837513 -800 0 -2.5729052 141.61765 
21.74 -7.8902418 29.047272 -800 0 -42.995117 11.656327 -800 0 
	-800 0 -4.8508238 142.21183 -800 0 -6.7556744 32.061327 
	-42.995117 11.656327 -800 0 -0.015247194 178.11643 -800 0 
	-800 0 -6.7556744 32.061327 -800 0 -2.6395494 141.21353 
21.75 -7.8614507 25.586068 -800 0 -42.925147 10.461117 -800 0 
	-800 0 -4.9164859 141.31722 -800 0 -6.6606304 31.27518 
	-42.925147 10.461117 -800 0 -0.015257305 178.11507 -800 0 
	-800 0 -6.6606304 31.27518 -800 0 -2.7084308 140.80367 
21.76 -7.8207897 22.083856 -800 0 -42.855339 9.2568392 -800 0 
	-800 0 -4.9845354 140.4219 -800 0 -6.5654218 30.47897 
	-42.855339 9.2568392 -800 0 -0.015267293 178.1137 -800 0 
	-800 0 -6.5654218 30.47897 -800 0 -2.7796444 140.38802 
21.77 -7.7677089 18.546764 -800 0 -42.785714 8.0436094 -800 0 
	-800 0 -5.0550705 139.52613 -800 0 -6.4700688 29.672594 
	-42.785714 8.0436094 -800 0 -0.015277155 178.11234 -800 0 
	-800 0 -6.4700688 29.672594 -800 0 -2.8532895 139.96658 
21.78 -7.7017615 14.981459 -800 0 -42.716288 6.8215512 -800 0 
	-800 0 -5.1281934 138.6302 -800 0 -6.3745928 28.855946 
	-42.716288 6.8215512 -800 0 -0.015286883 178.11098 -800 0 
	-800 0 -6.3745928 28.855946 -800 0 -2.9294709 139.53932 
21.79 -7.6226186 11.395039 -800 0 -42.647082 5.5907945 -800 0 
	-800 0 -5.2040113 137.73445 -800 0 -6.2790162 28.028926 
	-42.647082 5.5907945 -800 0 -0.015296473 178.10961 -800 0 
	-800 0 -6.2790162 28.028926 -800 0 -3.0082984 139.10626 
21.8 -7.5300792 7.7949147 -800 0 -42.578115 4.3514754 -800 0 
	-800 0 -5.2826359 136.83922 -800 0 -6.1833627 27.191428 
	-42.578115 4.3514754 -800 0 -0.01530592 178.10825 -800 0 
	-800 0 -6.1833627 27.191428 -800 0 -3.0898879 138.6674 
21.81 -7.4768197 4.2390785 -800 0 -42.529498 3.0480861 -800 0 
	-800 0 -5.370038 135.9322 -800 0 -6.0882034 26.31478 
	-42.529498 3.0480861 -800 0 -0.015315558 178.10691 -800 0 
	-800 0 -6.0882034 26.31478 -800 0 -3.1761649 138.23778 
21.82 -7.4122455 0.66396658 -800 0 -42.481669 1.7359662 -800 0 
	-800 0 -5.4606898 135.02671 -800 0 -5.9930728 25.427061 
	-42.481669 1.7359662 -800 0 -0.015324993 178.10557 -800 0 
	-800 0 -5.9930728 25.427061 -800 0 -3.2655375 137.80353 
21.83 -7.3361824 -2.9239936 -800 0 -42.434649 0.41534372 -800 0 
	-800 0 -5.5547278 134.1233 -800 0 -5.8980009 24.528185 
	-42.434649 0.41534372 -800 0 -0.015334219 178.10422 -800 0 
	-800 0 -5.8980009 24.528185 -800 0 -3.3581427 137.36477 
21.84 -7.248565 -6.5182187 -800 0 -42.388457 -0.91354412 -800 0 
	-800 0 -5.6522944 133.22255 -800 0 -5.8030187 23.618066 
	-42.388457 -0.91354412 -800 0 -0.015343228 178.10288 -800 0 
	-800 0 -5.8030187 23.618066 -800 0 -3.4541245 136.92166 
21.85 -7.1494393 -10.112082 -800 0 -42.343111 -2.2504511 -800 0 
	-800 0 -5.7535388 132.32512 -800 0 -5.7081588 22.696623 
	-42.343111 -2.2504511 -800 0 -0.015352014 178.10154 -800 0 
	-800 0 -5.7081588 22.696623 -800 0 -3.5536347 136.47439 
21.86 -7.0389616 -13.699024 -800 0 -42.298629 -3.5951222 -800 0 
	-800 0 -5.8586164 131.43173 -800 0 -5.6134551 21.763781 
	-42.298629 -3.5951222 -800 0 -0.015360571 178.1002 -800 0 
	-800 0 -5.6134551 21.763781 -800 0 -3.6568332 136.02315 
21.87 -6.9173948 -17.272668 -800 0 -42.255028 -4.9472939 -800 0 
	-800 0 -5.9676898 130.54315 -800 0 -5.518943 20.819466 
	-42.255028 -4.9472939 -800 0 -0.015368894 178.09885 -800 0 
	-800 0 -5.518943 20.819466 -800 0 -3.7638885 135.56819 
21.88 -6.7851018 -20.826914 -800 0 -42.212323 -6.3066942 -800 0 
	-800 0 -6.0809284 129.66027 -800 0 -5.4246594 19.863611 
	-42.212323 -6.3066942 -800 0 -0.015376975 178.09751 -800 0 
	-800 0 -5.4246594 19.863611 -800 0 -3.8749784 135.10978 
21.89 -6.6425357 -24.356038 -800 0 -42.17053 -7.6730433 -800 0 
	-800 0 -6.198509 128.78405 -800 0 -5.3306424 18.896154 
	-42.17053 -7.6730433 -800 0 -0.01538481 178.09616 -800 0 
	-800 0 -5.3306424 18.896154 -800 0 -3.9902906 134.64822 
21.9 -6.4902285 -27.854757 -800 0 -42.129663 -9.0460539 -800 0 
	-800 0 -6.320616 127.91552 -800 0 -5.2369318 17.917041 
	-42.129663 -9.0460539 -800 0 -0.015392393 178.09481 -800 0 
	-800 0 -5.2369318 17.917041 -800 0 -4.1100232 134.18388 
21.91 -6.3824741 -31.271162 -800 0 -42.111686 -10.439636 -800 0 
	-800 0 -6.4867565 127.16115 -800 0 -5.1535563 16.73398 
	-42.111686 -10.439636 -800 0 -0.015399758 178.09349 -800 0 
	-800 0 -5.1535563 16.73398 -800 0 -4.2506815 133.84091 
21.92 -6.2669001 -34.665405 -800 0 -42.095062 -11.838043 -800 0 
	-800 0 -6.6594876 126.4323 -800 0 -5.0711695 15.536807 
	-42.095062 -11.838043 -800 0 -0.015406828 178.09216 -800 0 
	-800 0 -5.0711695 15.536807 -800 0 -4.3967519 133.50847 
21.93 -6.143883 -38.033404 -800 0 -42.07979 -13.24091 -800 0 
	-800 0 -6.8390344 125.73206 -800 0 -4.9898306 14.325646 
	-42.07979 -13.24091 -800 0 -0.015413603 178.09084 -800 0 
	-800 0 -4.9898306 14.325646 -800 0 -4.5484416 133.18816 
21.94 -6.0138435 -41.371415 -800 0 -42.065866 -14.647872 -800 0 
	-800 0 -7.0256184 125.06384 -800 0 -4.9095991 13.100644 
	-42.065866 -14.647872 -800 0 -0.015420079 178.08951 -800 0 
	-800 0 -4.9095991 13.100644 -800 0 -4.7059632 132.88174 
21.95 -5.877238 -44.676049 -800 0 -42.053285 -16.05856 -800 0 
	-800 0 -7.2194538 124.4314 -800 0 -4.8305355 11.861966 
	-42.053285 -16.05856 -800 0 -0.015426255 178.08818 -800 0 
	-800 0 -4.8305355 11.861966 -800 0 -4.8695336 132.5911 
21.96 -5.7345502 -47.944294 -800 0 -42.04204 -17.472605 -800 0 
	-800 0 -7.4207436 123.83889 -800 0 -4.7527002 10.609802 
	-42.04204 -17.472605 -800 0 -0.015432131 178.08685 -800 0 
	-800 0 -4.7527002 10.609802 -800 0 -5.0393737 132.31838 
21.97 -5.586283 -51.173522 -800 0 -42.032121 -18.889637 -800 0 
	-800 0 -7.629674 123.29092 -800 0 -4.6761538 9.3443624 
	-42.032121 -18.889637 -800 0 -0.015437706 178.08552 -800 0 
	-800 0 -4.6761538 9.3443624 -800 0 -5.2157073 132.06587 
21.98 -5.4329504 -54.361489 -800 0 -42.023518 -20.309288 -800 0 
	-800 0 -7.846408 122.79256 -800 0 -4.6009571 8.0658821 
	-42.023518 -20.309288 -800 0 -0.015442981 178.08418 -800 0 
	-800 0 -4.6009571 8.0658821 -800 0 -5.3987603 131.83613 
21.99 -5.2750703 -57.506322 -800 0 -42.016217 -21.73119 -800 0 
	-800 0 -8.0710768 122.34943 -800 0 -4.5271704 6.7746191 
	-42.016217 -21.73119 -800 0 -0.015447955 178.08285 -800 0 
	-800 0 -4.5271704 6.7746191 -800 0 -5.5887589 131.63195 
22 -5.1131576 -60.606512 -800 0 -42.010203 -23.154977 -800 0 
	-800 0 -8.3037694 121.96773 -800 0 -4.4548534 5.4708556 
	-42.010203 -23.154977 -800 0 -0.015452632 178.08151 -800 0 
	-800 0 -4.4548534 5.4708556 -800 0 -5.7859278 131.45641 
22.01 -4.9956224 -63.619006 -800 0 -42.026608 -24.561211 -800 0 
	-800 0 -8.4899105 121.45262 -800 0 -4.3782847 4.3708467 
	-42.026608 -24.561211 -800 0 -0.015457024 178.08019 -800 0 
	-800 0 -4.3782847 4.3708467 -800 0 -5.978001 131.17621 
22.02 -4.8748785 -66.595489 -800 0 -42.044469 -25.966719 -800 0 
	-800 0 -8.682052 120.98007 -800 0 -4.3028876 3.2597941 
	-42.044469 -25.966719 -800 0 -0.015461125 178.07887 -800 0 
	-800 0 -4.3028876 3.2597941 -800 0 -6.1777962 130.91558 
22.03 -4.7512464 -69.534741 -800 0 -42.063749 -27.371163 -800 0 
	-800 0 -8.8802452 120.55439 -800 0 -4.2287145 2.137845 
	-42.063749 -27.371163 -800 0 -0.015464942 178.07755 -800 0 
	-800 0 -4.2287145 2.137845 -800 0 -6.3856677 130.6772 
22.04 -4.6250429 -72.43576 -800 0 -42.084411 -28.774213 -800 0 
	-800 0 -9.0845057 120.18025 -800 0 -4.1558177 1.0051635 
	-42.084411 -28.774213 -800 0 -0.01546848 178.07622 -800 0 
	-800 0 -4.1558177 1.0051635 -800 0 -6.6019859 130.46406 
22.05 -4.4965781 -75.297746 -800 0 -42.106414 -30.175553 -800 0 
	-800 0 -9.2948046 119.86276 -800 0 -4.0842497 -0.13806875 
	-42.106414 -30.175553 -800 0 -0.015471747 178.0749 -800 0 
	-800 0 -4.0842497 -0.13806875 -800 0 -6.8271366 130.27948 
22.06 -4.3661535 -78.12009 -800 0 -42.12972 -31.574875 -800 0 
	-800 0 -9.5110576 119.60747 -800 0 -4.0140628 -1.2916525 
	-42.12972 -31.574875 -800 0 -0.015474748 178.07357 -800 0 
	-800 0 -4.0140628 -1.2916525 -800 0 -7.061521 130.12722 
22.07 -4.2340596 -80.90236 -800 0 -42.154285 -32.971885 -800 0 
	-800 0 -9.7331125 119.42036 -800 0 -3.945309 -2.4553704 
	-42.154285 -32.971885 -800 0 -0.015477492 178.07224 -800 0 
	-800 0 -3.945309 -2.4553704 -800 0 -7.3055544 130.01148 
22.08 -4.1005748 -83.644288 -800 0 -42.180067 -34.366299 -800 0 
	-800 0 -9.9607336 119.30793 -800 0 -3.8780399 -3.6289868 
	-42.180067 -34.366299 -800 0 -0.015479986 178.0709 -800 0 
	-800 0 -3.8780399 -3.6289868 -800 0 -7.5596645 129.93699 
22.09 -3.9659637 -86.345757 -800 0 -42.207022 -35.757847 -800 0 
	-800 0 -10.193584 119.27712 -800 0 -3.8123063 -4.8122476 
	-42.207022 -35.757847 -800 0 -0.015482238 178.06956 -800 0 
	-800 0 -3.8123063 -4.8122476 -800 0 -7.8242885 129.90908 
22.1 -3.8304762 -89.006781 -800 0 -42.235105 -37.14627 -800 0 
	-800 0 -10.431205 119.33536 -800 0 -3.7481583 -6.0048806 
	-42.235105 -37.14627 -800 0 -0.015484254 178.06823 -800 0 
	-800 0 -3.7481583 -6.0048806 -800 0 -8.0998693 129.93378 
22.11 -3.734992 -91.58434 -800 0 -42.283274 -38.486799 -800 0 
	-800 0 -10.68202 119.60005 -800 0 -3.6871672 -7.271872 
	-42.283274 -38.486799 -800 0 -0.015486254 178.0669 -800 0 
	-800 0 -3.6871672 -7.271872 -800 0 -8.4011194 130.08635 
22.12 -3.6386113 -94.127936 -800 0 -42.332505 -39.822038 -800 0 
	-800 0 -10.935566 119.98447 -800 0 -3.6280304 -8.5482806 
	-42.332505 -39.822038 -800 0 -0.015488067 178.06558 -800 0 
	-800 0 -3.6280304 -8.5482806 -800 0 -8.7148737 130.31862 
22.13 -3.5414742 -96.637502 -800 0 -42.382742 -41.151842 -800 0 
	-800 0 -11.190538 120.49803 -800 0 -3.5707982 -9.8337095 
	-42.382742 -41.151842 -800 0 -0.015489703 178.06425 -800 0 
	-800 0 -3.5707982 -9.8337095 -800 0 -9.041481 130.64123 
22.14 -3.4437134 -99.113054 -800 0 -42.433929 -42.476075 -800 0 
	-800 0 -11.445329 121.15004 -800 0 -3.5155191 -11.127741 
	-42.433929 -42.476075 -800 0 -0.015491171 178.06292 -800 0 
	-800 0 -3.5155191 -11.127741 -800 0 -9.381215 131.06632 
22.15 -3.3454549 -101.55468 -800 0 -42.486008 -43.79462 -800 0 
	-800 0 -11.697998 121.94934 -800 0 -3.462239 -12.429936 
	-42.486008 -43.79462 -800 0 -0.01549248 178.06159 -800 0 
	-800 0 -3.462239 -12.429936 -800 0 -9.7342391 131.60767 
22.16 -3.2468171 -103.96255 -800 0 -42.538925 -45.107369 -800 0 
	-800 0 -11.946237 122.90387 -800 0 -3.4110014 -13.739839 
	-42.538925 -45.107369 -800 0 -0.01549364 178.06025 -800 0 
	-800 0 -3.4110014 -13.739839 -800 0 -10.100558 132.281 
22.17 -3.1479111 -106.33687 -800 0 -42.592625 -46.41423 -800 0 
	-800 0 -12.187351 124.02009 -800 0 -3.361847 -15.056971 
	-42.592625 -46.41423 -800 0 -0.015494658 178.05891 -800 0 
	-800 0 -3.361847 -15.056971 -800 0 -10.479951 133.10416 
22.18 -3.0488404 -108.67793 -800 0 -42.647053 -47.715124 -800 0 
	-800 0 -12.41826 125.30228 -800 0 -3.3148134 -16.380841 
	-42.647053 -47.715124 -800 0 -0.015495543 178.05757 -800 0 
	-800 0 -3.3148134 -16.380841 -800 0 -10.871891 134.0973 
22.19 -2.9497015 -110.98604 -800 0 -42.702155 -49.009982 -800 0 
	-800 0 -12.635524 126.75178 -800 0 -3.269935 -17.710937 
	-42.702155 -49.009982 -800 0 -0.015496304 178.05622 -800 0 
	-800 0 -3.269935 -17.710937 -800 0 -11.275425 135.28309 
22.2 -2.8505834 -113.26159 -800 0 -42.757878 -50.298748 -800 0 
	-800 0 -12.835409 128.36613 -800 0 -3.227243 -19.046736 
	-42.757878 -50.298748 -800 0 -0.015496946 178.05488 -800 0 
	-800 0 -3.227243 -19.046736 -800 0 -11.689036 136.68668 
22.21 -2.7868071 -115.4547 -800 0 -42.830693 -51.511775 -800 0 
	-800 0 -13.024604 129.94635 -800 0 -3.1818373 -20.367531 
	-42.830693 -51.511775 -800 0 -0.015498015 178.05354 -800 0 
	-800 0 -3.1818373 -20.367531 -800 0 -12.126548 138.39769 
22.22 -2.7226158 -117.62008 -800 0 -42.903921 -52.71762 -800 0 
	-800 0 -13.192138 131.67365 -800 0 -3.1388007 -21.693359 
	-42.903921 -52.71762 -800 0 -0.015499024 178.05221 -800 0 
	-800 0 -3.1388007 -21.693359 -800 0 -12.569447 140.40484 
22.23 -2.6580564 -119.758 -800 0 -42.977511 -53.916345 -800 0 
	-800 0 -13.334332 133.53466 -800 0 -3.0981605 -23.023634 
	-42.977511 -53.916345 -800 0 -0.015499978 178.05087 -800 0 
	-800 0 -3.0981605 -23.023634 -800 0 -13.012774 142.74248 
22.24 -2.5931738 -121.86874 -800 0 -43.051415 -55.108022 -800 0 
	-800 0 -13.447742 135.51075 -800 0 -3.0599394 -24.357759 
	-43.051415 -55.108022 -800 0 -0.015500882 178.04953 -800 0 
	-800 0 -3.0599394 -24.357759 -800 0 -13.4498 145.44384 
22.25 -2.5280099 -123.95262 -800 0 -43.125585 -56.292728 -800 0 
	-800 0 -13.52937 137.57824 -800 0 -3.024156 -25.695126 
	-43.125585 -56.292728 -800 0 -0.015501743 178.04819 -800 0 
	-800 0 -3.024156 -25.695126 -800 0 -13.871732 148.53744 
22.26 -2.4626049 -126.00996 -800 0 -43.199973 -57.470545 -800 0 
	-800 0 -13.576888 139.70903 -800 0 -2.9908242 -27.035118 
	-43.199973 -57.470545 -800 0 -0.015502565 178.04684 -800 0 
	-800 0 -2.9908242 -27.035118 -800 0 -14.267551 152.04199 
22.27 -2.3969962 -128.04111 -800 0 -43.274537 -58.641563 -800 0 
	-800 0 -13.588813 141.87173 -800 0 -2.9599536 -28.377116 
	-43.274537 -58.641563 -800 0 -0.015503352 178.04549 -800 0 
	-800 0 -2.9599536 -28.377116 -800 0 -14.62416 155.9597 
22.28 -2.3312191 -130.04646 -800 0 -43.349232 -59.805874 -800 0 
	-800 0 -13.56464 144.0332 -800 0 -2.9315489 -29.720492 
	-43.349232 -59.805874 -800 0 -0.015504109 178.04414 -800 0 
	-800 0 -2.9315489 -29.720492 -800 0 -14.927021 160.26895 
22.29 -2.2653068 -132.02637 -800 0 -43.424017 -60.963575 -800 0 
	-800 0 -13.504881 146.16032 -800 0 -2.9056102 -31.064622 
	-43.424017 -60.963575 -800 0 -0.015504837 178.04279 -800 0 
	-800 0 -2.9056102 -31.064622 -800 0 -15.161424 164.91804 
22.3 -2.1992901 -133.98125 -800 0 -43.498852 -62.114768 -800 0 
	-800 0 -13.411025 148.22171 -800 0 -2.882133 -32.408878 
	-43.498852 -62.114768 -800 0 -0.015505542 178.04143 -800 0 
	-800 0 -2.882133 -32.408878 -800 0 -15.314352 169.82265 
22.31 -2.1627953 -135.8603 -800 0 -43.587372 -63.175306 -800 0 
	-800 0 -13.252756 150.04598 -800 0 -2.8756927 -33.70781 
	-43.587372 -63.175306 -800 0 -0.015507079 178.04009 -800 0 
	-800 0 -2.8756927 -33.70781 -800 0 -15.335457 174.51364 
22.32 -2.1256827 -137.7181 -800 0 -43.675721 -64.229307 -800 0 
	-800 0 -13.070628 151.7316 -800 0 -2.8714783 -35.004646 
	-43.675721 -64.229307 -800 0 -0.015508633 178.03875 -800 0 
	-800 0 -2.8714783 -35.004646 -800 0 -15.275435 179.16199 
22.33 -2.0879748 -139.55496 -800 0 -43.763869 -65.276942 -800 0 
	-800 0 -12.868279 153.26726 -800 0 -2.8694588 -36.298889 
	-43.763869 -65.276942 -800 0 -0.015510203 178.03741 -800 0 
	-800 0 -2.8694588 -36.298889 -800 0 -15.138585 -176.33463 
22.34 -2.0496933 -141.37119 -800 0 -43.851787 -66.318382 -800 0 
	-800 0 -12.649321 154.64634 -800 0 -2.8696003 -37.590055 
	-43.851787 -66.318382 -800 0 -0.015511792 178.03606 -800 0 
	-800 0 -2.8696003 -37.590055 -800 0 -14.93311 -172.06276 
22.35 -2.0108598 -143.16711 -800 0 -43.939446 -67.353797 -800 0 
	-800 0 -12.417208 155.8664 -800 0 -2.8718655 -38.877672 
	-43.939446 -67.353797 -800 0 -0.015513398 178.03471 -800 0 
	-800 0 -2.8718655 -38.877672 -800 0 -14.66978 -168.08641 
22.36 -1.9714956 -144.94305 -800 0 -44.026822 -68.383353 -800 0 
	-800 0 -12.175132 156.92843 -800 0 -2.8762143 -40.161287 
	-44.026822 -68.383353 -800 0 -0.015515023 178.03336 -800 0 
	-800 0 -2.8762143 -40.161287 -800 0 -14.360451 -164.44513 
22.37 -1.9316213 -146.69932 -800 0 -44.113889 -69.407216 -800 0 
	-800 0 -11.925968 157.83615 -800 0 -2.8826039 -41.44046 
	-44.113889 -69.407216 -800 0 -0.015516666 178.032 -800 0 
	-800 0 -2.8826039 -41.44046 -800 0 -14.016788 -161.15608 
22.38 -1.8912572 -148.43625 -800 0 -44.200624 -70.425547 -800 0 
	-800 0 -11.672242 158.5953 -800 0 -2.8909887 -42.714769 
	-44.200624 -70.425547 -800 0 -0.015518328 178.03065 -800 0 
	-800 0 -2.8909887 -42.714769 -800 0 -13.649385 -158.21844 
22.39 -1.8504229 -150.15417 -800 0 -44.287003 -71.438507 -800 0 
	-800 0 -11.416137 159.21303 -800 0 -2.9013211 -43.983812 
	-44.287003 -71.438507 -800 0 -0.015520006 178.02929 -800 0 
	-800 0 -2.9013211 -43.983812 -800 0 -13.267305 -155.61858 
22.4 -1.8091379 -151.85342 -800 0 -44.373007 -72.446253 -800 0 
	-800 0 -11.159498 159.69738 -800 0 -2.9135511 -45.247203 
	-44.373007 -72.446253 -800 0 -0.015521702 178.02793 -800 0 
	-800 0 -2.9135511 -45.247203 -800 0 -12.87794 -153.33481 
22.41 -1.7914238 -153.48525 -800 0 -44.469391 -73.359861 -800 0 
	-800 0 -10.908158 160.10475 -800 0 -2.9279364 -46.523783 
	-44.469391 -73.359861 -800 0 -0.015524493 178.02659 -800 0 
	-800 0 -2.9279364 -46.523783 -800 0 -12.463734 -151.34648 
22.42 -1.7728317 -155.10147 -800 0 -44.565238 -74.268872 -800 0 
	-800 0 -10.658579 160.39186 -800 0 -2.944204 -47.793091 
	-44.565238 -74.268872 -800 0 -0.015527323 178.02524 -800 0 
	-800 0 -2.944204 -47.793091 -800 0 -12.054855 -149.63711 
22.43 -1.7533828 -156.70233 -800 0 -44.660536 -75.173465 -800 0 
	-800 0 -10.411898 160.56741 -800 0 -2.9622914 -49.054781 
	-44.660536 -75.173465 -800 0 -0.015530188 178.02389 -800 0 
	-800 0 -2.9622914 -49.054781 -800 0 -11.654505 -148.1752 
22.44 -1.7330979 -158.28809 -800 0 -44.755276 -76.073814 -800 0 
	-800 0 -10.169021 160.63997 -800 0 -2.9821347 -50.30853 
	-44.755276 -76.073814 -800 0 -0.015533086 178.02254 -800 0 
	-800 0 -2.9821347 -50.30853 -800 0 -11.264869 -146.93155 
22.45 -1.7119981 -159.859 -800 0 -44.849446 -76.970086 -800 0 
	-800 0 -9.9306606 160.61776 -800 0 -3.0036688 -51.554038 
	-44.849446 -76.970086 -800 0 -0.015536017 178.02119 -800 0 
	-800 0 -3.0036688 -51.554038 -800 0 -10.887354 -145.87968 
22.46 -1.6901041 -161.41529 -800 0 -44.943039 -77.862444 -800 0 
	-800 0 -9.6973616 160.50861 -800 0 -3.026828 -52.791029 
	-44.943039 -77.862444 -800 0 -0.015538977 178.01984 -800 0 
	-800 0 -3.026828 -52.791029 -800 0 -10.52279 -144.99602 
22.47 -1.6674366 -162.95722 -800 0 -45.036046 -78.751048 -800 0 
	-800 0 -9.4695297 160.31987 -800 0 -3.051546 -54.019252 
	-45.036046 -78.751048 -800 0 -0.015541965 178.01849 -800 0 
	-800 0 -3.051546 -54.019252 -800 0 -10.171586 -144.25972 
22.48 -1.6440159 -164.48503 -800 0 -45.128458 -79.63605 -800 0 
	-800 0 -9.2474543 160.05842 -800 0 -3.0777558 -55.238478 
	-45.128458 -79.63605 -800 0 -0.015544978 178.01713 -800 0 
	-800 0 -3.0777558 -55.238478 -800 0 -9.8338488 -143.65253 
22.49 -1.6198623 -165.99897 -800 0 -45.220268 -80.5176 -800 0 
	-800 0 -9.0313289 159.73065 -800 0 -3.1053907 -56.448499 
	-45.220268 -80.5176 -800 0 -0.015548014 178.01577 -800 0 
	-800 0 -3.1053907 -56.448499 -800 0 -9.5094684 -143.15846 
22.5 -1.5949956 -167.49927 -800 0 -45.311469 -81.395841 -800 0 
	-800 0 -8.8212686 159.34244 -800 0 -3.1343838 -57.649131 
	-45.311469 -81.395841 -800 0 -0.015551071 178.01441 -800 0 
	-800 0 -3.1343838 -57.649131 -800 0 -9.1981874 -142.76358 
22.51 -1.5878937 -168.92831 -800 0 -45.408987 -82.184555 -800 0 
	-800 0 -8.6221363 158.89538 -800 0 -3.1660216 -58.830249 
	-45.408987 -82.184555 -800 0 -0.015555358 178.01307 -800 0 
	-800 0 -3.1660216 -58.830249 -800 0 -8.8953413 -142.44777 
22.52 -1.5798468 -170.34646 -800 0 -45.505832 -82.970772 -800 0 
	-800 0 -8.4290196 158.39923 -800 0 -3.1989493 -60.001683 
	-45.505832 -82.970772 -800 0 -0.015559673 178.01173 -800 0 
	-800 0 -3.1989493 -60.001683 -800 0 -8.6050592 -142.21043 
22.53 -1.5708753 -171.75392 -800 0 -45.602006 -83.754627 -800 0 
	-800 0 -8.2418817 157.85847 -800 0 -3.2331001 -61.163304 
	-45.602006 -83.754627 -800 0 -0.015564014 178.01038 -800 0 
	-800 0 -3.2331001 -61.163304 -800 0 -8.3268709 -142.04201 
22.54 -1.5609989 -173.15084 -800 0 -45.697507 -84.53625 -800 0 
	-800 0 -8.0606534 157.27716 -800 0 -3.268408 -62.315002 
	-45.697507 -84.53625 -800 0 -0.015568377 178.00904 -800 0 
	-800 0 -3.268408 -62.315002 -800 0 -8.0602847 -141.93416 
22.55 -1.5502375 -174.5374 -800 0 -45.792337 -85.315764 -800 0 
	-800 0 -7.8852401 156.65904 -800 0 -3.3048079 -63.456688 
	-45.792337 -85.315764 -800 0 -0.015572761 178.00769 -800 0 
	-800 0 -3.3048079 -63.456688 -800 0 -7.8048015 -141.8796 
22.56 -1.5386107 -175.91376 -800 0 -45.886494 -86.093293 -800 0 
	-800 0 -7.7155277 156.00752 -800 0 -3.3422355 -64.588291 
	-45.886494 -86.093293 -800 0 -0.015577163 178.00634 -800 0 
	-800 0 -3.3422355 -64.588291 -800 0 -7.5599244 -141.87192 
22.57 -1.5261377 -177.28009 -800 0 -45.979981 -86.86895 -800 0 
	-800 0 -7.5513869 155.32572 -800 0 -3.3806276 -65.709757 
	-45.979981 -86.86895 -800 0 -0.015581581 178.00499 -800 0 
	-800 0 -3.3806276 -65.709757 -800 0 -7.3251656 -141.90551 
22.58 -1.5128378 -178.63654 -800 0 -46.072796 -87.64285 -800 0 
	-800 0 -7.3926775 154.61649 -800 0 -3.4199224 -66.821049 
	-46.072796 -87.64285 -800 0 -0.015586012 178.00364 -800 0 
	-800 0 -3.4199224 -66.821049 -800 0 -7.1000507 -141.97544 
22.59 -1.4987298 -179.98328 -800 0 -46.164941 -88.415099 -800 0 
	-800 0 -7.2392511 153.88241 -800 0 -3.4600591 -67.922144 
	-46.164941 -88.415099 -800 0 -0.015590454 178.00228 -800 0 
	-800 0 -3.4600591 -67.922144 -800 0 -6.884122 -142.07734 
22.6 -1.4838324 178.67954 -800 0 -46.256416 -89.185802 -800 0 
	-800 0 -7.0909541 153.12586 -800 0 -3.5009785 -69.013037 
	-46.256416 -89.185802 -800 0 -0.015594905 178.00093 -800 0 
	-800 0 -3.5009785 -69.013037 -800 0 -6.6769403 -142.20737 
22.61 -1.4825241 177.41423 -800 0 -46.351064 -89.875868 -800 0 
	-800 0 -6.9537483 152.28601 -800 0 -3.5466014 -70.032449 
	-46.351064 -89.875868 -800 0 -0.015599983 177.99959 -800 0 
	-800 0 -3.5466014 -70.032449 -800 0 -6.4906156 -142.36796 
22.62 -1.4803405 176.15611 -800 0 -46.445052 -90.565069 -800 0 
	-800 0 -6.8210897 151.43294 -800 0 -3.5928467 -71.042745 
	-46.445052 -90.565069 -800 0 -0.015605072 177.99826 -800 0 
	-800 0 -3.5928467 -71.042745 -800 0 -6.3114249 -142.54693 
22.63 -1.477298 174.90509 -800 0 -46.538382 -91.253493 -800 0 
	-800 0 -6.6928118 150.56805 -800 0 -3.6396672 -72.043976 
	-46.538382 -91.253493 -800 0 -0.015610167 177.99692 -800 0 
	-800 0 -3.6396672 -72.043976 -800 0 -6.1390345 -142.74207 
22.64 -1.4734129 173.66107 -800 0 -46.631061 -91.941222 -800 0 
	-800 0 -6.5687527 149.69259 -800 0 -3.6870173 -73.036197 
	-46.631061 -91.941222 -800 0 -0.015615268 177.99558 -800 0 
	-800 0 -3.6870173 -73.036197 -800 0 -5.9731279 -142.9514 
22.65 -1.4687012 172.42392 -800 0 -46.723091 -92.628337 -800 0 
	-800 0 -6.4487544 148.80771 -800 0 -3.7348525 -74.019474 
	-46.723091 -92.628337 -800 0 -0.015620373 177.99425 -800 0 
	-800 0 -3.7348525 -74.019474 -800 0 -5.8134045 -143.17316 
22.66 -1.4631787 171.19357 -800 0 -46.814477 -93.314916 -800 0 
	-800 0 -6.332664 147.91447 -800 0 -3.7831299 -74.99388 
	-46.814477 -93.314916 -800 0 -0.015625478 177.9929 -800 0 
	-800 0 -3.7831299 -74.99388 -800 0 -5.6595793 -143.40577 
22.67 -1.4568609 169.9699 -800 0 -46.905221 -94.001033 -800 0 
	-800 0 -6.2203332 147.01383 -800 0 -3.8318079 -75.959494 
	-46.905221 -94.001033 -800 0 -0.015630583 177.99156 -800 0 
	-800 0 -3.8318079 -75.959494 -800 0 -5.511382 -143.64781 
22.68 -1.4497634 168.75282 -800 0 -46.995329 -94.68676 -800 0 
	-800 0 -6.1116185 146.10665 -800 0 -3.8808463 -76.916402 
	-46.995329 -94.68676 -800 0 -0.015635685 177.99022 -800 0 
	-800 0 -3.8808463 -76.916402 -800 0 -5.3685564 -143.89802 
22.69 -1.4419012 167.54224 -800 0 -47.084803 -95.372166 -800 0 
	-800 0 -6.0063813 145.19374 -800 0 -3.9302066 -77.864695 
	-47.084803 -95.372166 -800 0 -0.015640783 177.98888 -800 0 
	-800 0 -3.9302066 -77.864695 -800 0 -5.2308595 -144.15524 
22.7 -1.4332893 166.33806 -800 0 -47.173647 -96.057316 -800 0 
	-800 0 -5.9044878 144.27583 -800 0 -3.9798512 -78.804468 
	-47.173647 -96.057316 -800 0 -0.015645874 177.98753 -800 0 
	-800 0 -3.9798512 -78.804468 -800 0 -5.0980612 -144.41845 
22.71 -1.4354046 165.19392 -800 0 -47.264492 -96.672287 -800 0 
	-800 0 -5.8095148 143.33363 -800 0 -4.0350795 -79.723285 
	-47.264492 -96.672287 -800 0 -0.015650946 177.98621 -800 0 
	-800 0 -4.0350795 -79.723285 -800 0 -4.9797569 -144.7609 
22.72 -1.4367345 164.05445 -800 0 -47.35474 -97.287495 -800 0 
	-800 0 -5.7176806 142.38882 -800 0 -4.0903023 -80.634089 
	-47.35474 -97.287495 -800 0 -0.015656011 177.98489 -800 0 
	-800 0 -4.0903023 -80.634089 -800 0 -4.8657283 -145.10231 
22.73 -1.4372918 162.91958 -800 0 -47.444397 -97.902992 -800 0 
	-800 0 -5.6288532 141.44184 -800 0 -4.1454915 -81.537038 
	-47.444397 -97.902992 -800 0 -0.015661067 177.98356 -800 0 
	-800 0 -4.1454915 -81.537038 -800 0 -4.7557731 -145.4423 
22.74 -1.4370893 161.78927 -800 0 -47.533467 -98.518828 -800 0 
	-800 0 -5.5429067 140.49313 -800 0 -4.2006205 -82.432287 
	-47.533467 -98.518828 -800 0 -0.015666113 177.98224 -800 0 
	-800 0 -4.2006205 -82.432287 -800 0 -4.6497007 -145.78056 
22.75 -1.4361393 160.66344 -800 0 -47.621955 -99.135052 -800 0 
	-800 0 -5.4597208 139.54304 -800 0 -4.2556638 -83.319994 
	-47.621955 -99.135052 -800 0 -0.015671147 177.98091 -800 0 
	-800 0 -4.2556638 -83.319994 -800 0 -4.5473315 -146.11678 
22.76 -1.4344544 159.54206 -800 0 -47.709866 -99.75171 -800 0 
	-800 0 -5.3791808 138.59192 -800 0 -4.3105973 -84.200314 
	-47.709866 -99.75171 -800 0 -0.015676168 177.97958 -800 0 
	-800 0 -4.3105973 -84.200314 -800 0 -4.4484963 -146.45072 
22.77 -1.4320465 158.42505 -800 0 -47.797205 -100.36885 -800 0 
	-800 0 -5.3011773 137.64007 -800 0 -4.3653983 -85.073404 
	-47.797205 -100.36885 -800 0 -0.015681175 177.97825 -800 0 
	-800 0 -4.3653983 -85.073404 -800 0 -4.3530351 -146.78215 
22.78 -1.4289278 157.31236 -800 0 -47.883975 -100.98651 -800 0 
	-800 0 -5.2256058 136.68776 -800 0 -4.420045 -85.939417 
	-47.883975 -100.98651 -800 0 -0.015686166 177.97692 -800 0 
	-800 0 -4.420045 -85.939417 -800 0 -4.260797 -147.11087 
22.79 -1.4251101 156.20395 -800 0 -47.970181 -101.60473 -800 0 
	-800 0 -5.1523667 135.73525 -800 0 -4.4745171 -86.798507 
	-47.970181 -101.60473 -800 0 -0.01569114 177.97559 -800 0 
	-800 0 -4.4745171 -86.798507 -800 0 -4.1716392 -147.43673 
22.8 -1.4206051 155.09976 -800 0 -48.055826 -102.22355 -800 0 
	-800 0 -5.0813648 134.78274 -800 0 -4.528795 -87.650826 
	-48.055826 -102.22355 -800 0 -0.015696095 177.97426 -800 0 
	-800 0 -4.528795 -87.650826 -800 0 -4.0854269 -147.75957 
22.81 -1.4245639 154.04464 -800 0 -48.142856 -102.78239 -800 0 
	-800 0 -5.0128334 133.86045 -800 0 -4.5814993 -88.514939 
	-48.142856 -102.78239 -800 0 -0.015701042 177.97295 -800 0 
	-800 0 -4.5814993 -88.514939 -800 0 -3.9896696 -148.12031 
22.82 -1.4278267 152.99249 -800 0 -48.229366 -103.34216 -800 0 
	-800 0 -4.9464733 132.9375 -800 0 -4.6339683 -89.370905 
	-48.229366 -103.34216 -800 0 -0.01570597 177.97164 -800 0 
	-800 0 -4.6339683 -89.370905 -800 0 -3.8972136 -148.47746 
22.83 -1.4304034 151.94329 -800 0 -48.315363 -103.90289 -800 0 
	-800 0 -4.8821963 132.01412 -800 0 -4.6861798 -90.218889 
	-48.315363 -103.90289 -800 0 -0.015710879 177.97033 -800 0 
	-800 0 -4.6861798 -90.218889 -800 0 -3.8079089 -148.83088 
22.84 -1.4323037 150.897 -800 0 -48.40085 -104.4646 -800 0 
	-800 0 -4.8199178 131.09052 -800 0 -4.7381126 -91.059056 
	-48.40085 -104.4646 -800 0 -0.015715768 177.96902 -800 0 
	-800 0 -4.7381126 -91.059056 -800 0 -3.7216136 -149.18046 
22.85 -1.4335371 149.8536 -800 0 -48.485832 -105.02732 -800 0 
	-800 0 -4.7595568 130.1669 -800 0 -4.7897467 -91.89157 
	-48.485832 -105.02732 -800 0 -0.015720637 177.96771 -800 0 
	-800 0 -4.7897467 -91.89157 -800 0 -3.6381935 -149.52609 
22.86 -1.4341132 148.81305 -800 0 -48.570313 -105.59109 -800 0 
	-800 0 -4.7010359 129.24342 -800 0 -4.8410636 -92.71659 
	-48.570313 -105.59109 -800 0 -0.015725484 177.96639 -800 0 
	-800 0 -4.8410636 -92.71659 -800 0 -3.5575219 -149.86771 
22.87 -1.4340411 147.77533 -800 0 -48.654297 -106.15591 -800 0 
	-800 0 -4.6442808 128.32023 -800 0 -4.8920455 -93.534275 
	-48.654297 -106.15591 -800 0 -0.015730308 177.96508 -800 0 
	-800 0 -4.8920455 -93.534275 -800 0 -3.4794788 -150.20524 
22.88 -1.4333302 146.7404 -800 0 -48.737789 -106.72183 -800 0 
	-800 0 -4.5892206 127.39748 -800 0 -4.9426761 -94.344781 
	-48.737789 -106.72183 -800 0 -0.01573511 177.96376 -800 0 
	-800 0 -4.9426761 -94.344781 -800 0 -3.4039505 -150.53863 
22.89 -1.4319895 145.70825 -800 0 -48.820791 -107.28887 -800 0 
	-800 0 -4.5357872 126.47527 -800 0 -4.9929397 -95.148262 
	-48.820791 -107.28887 -800 0 -0.015739888 177.96244 -800 0 
	-800 0 -4.9929397 -95.148262 -800 0 -3.3308292 -150.86787 
22.9 -1.430028 144.67884 -800 0 -48.903309 -107.85704 -800 0 
	-800 0 -4.4839156 125.55372 -800 0 -5.0428221 -95.944867 
	-48.903309 -107.85704 -800 0 -0.015744641 177.96113 -800 0 
	-800 0 -5.0428221 -95.944867 -800 0 -3.2600129 -151.19291 
22.91 -1.4347401 143.68988 -800 0 -48.986774 -108.37397 -800 0 
	-800 0 -4.4360768 124.64307 -800 0 -5.0925505 -96.725042 
	-48.986774 -108.37397 -800 0 -0.015749442 177.95983 -800 0 
	-800 0 -5.0925505 -96.725042 -800 0 -3.1907326 -151.52444 
22.92 -1.438837 142.70277 -800 0 -49.069794 -108.89224 -800 0 
	-800 0 -4.3896592 123.73309 -800 0 -5.1418618 -97.498486 
	-49.069794 -108.89224 -800 0 -0.015754222 177.95853 -800 0 
	-800 0 -5.1418618 -97.498486 -800 0 -3.1235948 -151.85136 
22.93 -1.4423261 141.71749 -800 0 -49.152375 -109.41187 -800 0 
	-800 0 -4.3446061 122.82384 -800 0 -5.1907444 -98.265343 
	-49.152375 -109.41187 -800 0 -0.015758978 177.95723 -800 0 
	-800 0 -5.1907444 -98.265343 -800 0 -3.0585101 -152.17367 
22.94 -1.4452149 140.73404 -800 0 -49.234519 -109.93287 -800 0 
	-800 0 -4.3008632 121.9154 -800 0 -5.2391879 -99.025758 
	-49.234519 -109.93287 -800 0 -0.015763713 177.95593 -800 0 
	-800 0 -5.2391879 -99.025758 -800 0 -2.9953936 -152.49141 
22.95 -1.4475106 139.7524 -800 0 -49.31623 -110.45525 -800 0 
	-800 0 -4.2583786 121.0078 -800 0 -5.2871823 -99.779869 
	-49.31623 -110.45525 -800 0 -0.015768425 177.95463 -800 0 
	-800 0 -5.2871823 -99.779869 -800 0 -2.9341645 -152.80461 
22.96 -1.4492204 138.77256 -800 0 -49.397512 -110.97904 -800 0 
	-800 0 -4.2171023 120.10109 -800 0 -5.3347186 -100.52781 
	-49.397512 -110.97904 -800 0 -0.015773115 177.95333 -800 0 
	-800 0 -5.3347186 -100.52781 -800 0 -2.8747464 -153.1133 
22.97 -1.4503514 137.79451 -800 0 -49.478369 -111.50424 -800 0 
	-800 0 -4.1769866 119.19531 -800 0 -5.3817885 -101.26972 
	-49.478369 -111.50424 -800 0 -0.015777782 177.95203 -800 0 
	-800 0 -5.3817885 -101.26972 -800 0 -2.8170663 -153.41753 
22.98 -1.4509106 136.81822 -800 0 -49.558804 -112.03086 -800 0 
	-800 0 -4.1379858 118.29048 -800 0 -5.4283842 -102.00573 
	-49.558804 -112.03086 -800 0 -0.015782427 177.95073 -800 0 
	-800 0 -5.4283842 -102.00573 -800 0 -2.7610547 -153.71734 
22.99 -1.4509049 135.8437 -800 0 -49.638819 -112.55893 -800 0 
	-800 0 -4.1000559 117.38662 -800 0 -5.4744988 -102.73596 
	-49.638819 -112.55893 -800 0 -0.01578705 177.94943 -800 0 
	-800 0 -5.4744988 -102.73596 -800 0 -2.7066459 -154.01278 
23 -1.4503414 134.87093 -800 0 -49.718419 -113.08845 -800 0 
	-800 0 -4.0631548 116.48376 -800 0 -5.5201258 -103.46054 
	-49.718419 -113.08845 -800 0 -0.015791651 177.94812 -800 0 
	-800 0 -5.5201258 -103.46054 -800 0 -2.6537768 -154.30389 
23.01 -1.4551689 133.93499 -800 0 -49.798074 -113.57045 -800 0 
	-800 0 -4.0301833 115.57193 -800 0 -5.5684516 -104.15471 
	-49.798074 -113.57045 -800 0 -0.01579641 177.94684 -800 0 
	-800 0 -5.5684516 -104.15471 -800 0 -2.6077334 -154.58497 
23.02 -1.4594516 133.00008 -800 0 -49.877358 -114.05407 -800 0 
	-800 0 -3.9980826 114.66157 -800 0 -5.6163075 -104.84438 
	-49.877358 -114.05407 -800 0 -0.015801151 177.94555 -800 0 
	-800 0 -5.6163075 -104.84438 -800 0 -2.5629388 -154.86182 
23.03 -1.4631952 132.06622 -800 0 -49.956274 -114.53931 -800 0 
	-800 0 -3.9668188 113.75265 -800 0 -5.6636901 -105.52964 
	-49.956274 -114.53931 -800 0 -0.015805873 177.94427 -800 0 
	-800 0 -5.6636901 -105.52964 -800 0 -2.5193467 -155.13451 
23.04 -1.4664052 131.13339 -800 0 -50.034825 -115.02618 -800 0 
	-800 0 -3.9363597 112.84516 -800 0 -5.7105961 -106.21062 
	-50.034825 -115.02618 -800 0 -0.015810578 177.94298 -800 0 
	-800 0 -5.7105961 -106.21062 -800 0 -2.4769125 -155.40312 
23.05 -1.4690872 130.20159 -800 0 -50.113013 -115.51469 -800 0 
	-800 0 -3.9066741 111.93907 -800 0 -5.7570228 -106.88741 
	-50.113013 -115.51469 -800 0 -0.015815266 177.94169 -800 0 
	-800 0 -5.7570228 -106.88741 -800 0 -2.4355941 -155.6677 
23.06 -1.4712465 129.27084 -800 0 -50.190842 -116.00484 -800 0 
	-800 0 -3.8777322 111.03437 -800 0 -5.8029678 -107.56011 
	-50.190842 -116.00484 -800 0 -0.015819939 177.9404 -800 0 
	-800 0 -5.8029678 -107.56011 -800 0 -2.3953509 -155.92834 
23.07 -1.4728887 128.34111 -800 0 -50.268314 -116.49664 -800 0 
	-800 0 -3.8495056 110.13103 -800 0 -5.848429 -108.22883 
	-50.268314 -116.49664 -800 0 -0.015824596 177.93911 -800 0 
	-800 0 -5.848429 -108.22883 -800 0 -2.3561441 -156.1851 
23.08 -1.4740191 127.41241 -800 0 -50.345432 -116.9901 -800 0 
	-800 0 -3.8219668 109.22902 -800 0 -5.8934045 -108.89366 
	-50.345432 -116.9901 -800 0 -0.01582924 177.93782 -800 0 
	-800 0 -5.8934045 -108.89366 -800 0 -2.3179368 -156.43805 
23.09 -1.4746429 126.48475 -800 0 -50.422199 -117.48523 -800 0 
	-800 0 -3.7950894 108.32831 -800 0 -5.9378929 -109.5547 
	-50.422199 -117.48523 -800 0 -0.01583387 177.93653 -800 0 
	-800 0 -5.9378929 -109.5547 -800 0 -2.2806935 -156.68726 
23.1 -1.4747656 125.55811 -800 0 -50.498617 -117.98202 -800 0 
	-800 0 -3.7688483 107.4289 -800 0 -5.9818928 -110.21202 
	-50.498617 -117.98202 -800 0 -0.015838489 177.93524 -800 0 
	-800 0 -5.9818928 -110.21202 -800 0 -2.2443803 -156.93279 
23.11 -1.4793696 124.66611 -800 0 -50.574301 -118.43427 -800 0 
	-800 0 -3.7467451 106.54186 -800 0 -6.0251822 -110.84792 
	-50.574301 -118.43427 -800 0 -0.015843374 177.93396 -800 0 
	-800 0 -6.0251822 -110.84792 -800 0 -2.2090284 -157.18982 
23.12 -1.4834926 123.77457 -800 0 -50.649681 -118.88831 -800 0 
	-800 0 -3.7252001 105.65575 -800 0 -6.0679619 -111.48014 
	-50.649681 -118.88831 -800 0 -0.015848248 177.93269 -800 0 
	-800 0 -6.0679619 -111.48014 -800 0 -2.1745498 -157.44292 
23.13 -1.4871389 122.88348 -800 0 -50.724761 -119.34415 -800 0 
	-800 0 -3.7041911 104.77055 -800 0 -6.1102317 -112.10876 
	-50.724761 -119.34415 -800 0 -0.015853113 177.93141 -800 0 
	-800 0 -6.1102317 -112.10876 -800 0 -2.1409136 -157.69217 
23.14 -1.4903127 121.99285 -800 0 -50.799543 -119.80178 -800 0 
	-800 0 -3.6836967 103.88622 -800 0 -6.151992 -112.73388 
	-50.799543 -119.80178 -800 0 -0.015857971 177.93013 -800 0 
	-800 0 -6.151992 -112.73388 -800 0 -2.1080907 -157.93765 
23.15 -1.4930181 121.10268 -800 0 -50.874028 -120.26121 -800 0 
	-800 0 -3.6636965 103.00273 -800 0 -6.1932432 -113.35558 
	-50.874028 -120.26121 -800 0 -0.015862822 177.92885 -800 0 
	-800 0 -6.1932432 -113.35558 -800 0 -2.076053 -158.17944 
23.16 -1.4952593 120.21299 -800 0 -50.948219 -120.72244 -800 0 
	-800 0 -3.6441705 102.12006 -800 0 -6.2339858 -113.97393 
	-50.948219 -120.72244 -800 0 -0.015867669 177.92758 -800 0 
	-800 0 -6.2339858 -113.97393 -800 0 -2.0447735 -158.4176 
23.17 -1.4970403 119.32377 -800 0 -51.022118 -121.18547 -800 0 
	-800 0 -3.6250998 101.23818 -800 0 -6.2742206 -114.58902 
	-51.022118 -121.18547 -800 0 -0.015872514 177.9263 -800 0 
	-800 0 -6.2742206 -114.58902 -800 0 -2.0142265 -158.65222 
23.18 -1.4983653 118.43504 -800 0 -51.095726 -121.6503 -800 0 
	-800 0 -3.6064661 100.35705 -800 0 -6.3139486 -115.20092 
	-51.095726 -121.6503 -800 0 -0.015877359 177.92502 -800 0 
	-800 0 -6.3139486 -115.20092 -800 0 -1.9843872 -158.88336 
23.19 -1.4992382 117.54679 -800 0 -51.169046 -122.11694 -800 0 
	-800 0 -3.5882518 99.476646 -800 0 -6.3531708 -115.8097 
	-51.169046 -122.11694 -800 0 -0.015882204 177.92374 -800 0 
	-800 0 -6.3531708 -115.8097 -800 0 -1.9552318 -159.11109 
23.2 -1.4996632 116.65903 -800 0 -51.24208 -122.58538 -800 0 
	-800 0 -3.5704398 98.596942 -800 0 -6.3918887 -116.41544 
	-51.24208 -122.58538 -800 0 -0.015887054 177.92245 -800 0 
	-800 0 -6.3918887 -116.41544 -800 0 -1.9267376 -159.33549 
23.21 -1.5038974 115.80252 -800 0 -51.314141 -123.01487 -800 0 
	-800 0 -3.5533994 97.723121 -800 0 -6.432064 -117.02748 
	-51.314141 -123.01487 -800 0 -0.015892205 177.92118 -800 0 
	-800 0 -6.432064 -117.02748 -800 0 -1.900522 -159.56503 
23.22 -1.5077102 114.94604 -800 0 -51.385954 -123.44622 -800 0 
	-800 0 -3.5367824 96.850097 -800 0 -6.4716954 -117.63697 
	-51.385954 -123.44622 -800 0 -0.015897353 177.91991 -800 0 
	-800 0 -6.4716954 -117.63697 -800 0 -1.8748878 -159.79112 
23.23 -1.5111046 114.08962 -800 0 -51.457521 -123.87942 -800 0 
	-800 0 -3.5205738 95.977834 -800 0 -6.5107847 -118.24397 
	-51.457521 -123.87942 -800 0 -0.0159025 177.91864 -800 0 
	-800 0 -6.5107847 -118.24397 -800 0 -1.8498157 -160.01382 
23.24 -1.5140837 113.23325 -800 0 -51.528843 -124.31448 -800 0 
	-800 0 -3.504759 95.106295 -800 0 -6.5493341 -118.84855 
	-51.528843 -124.31448 -800 0 -0.015907648 177.91737 -800 0 
	-800 0 -6.5493341 -118.84855 -800 0 -1.8252875 -160.23321 
23.25 -1.5166504 112.37695 -800 0 -51.599923 -124.75139 -800 0 
	-800 0 -3.4893239 94.235448 -800 0 -6.5873458 -119.45076 
	-51.599923 -124.75139 -800 0 -0.015912799 177.91609 -800 0 
	-800 0 -6.5873458 -119.45076 -800 0 -1.8012854 -160.44936 
23.26 -1.518808 111.52073 -800 0 -51.670761 -125.19016 -800 0 
	-800 0 -3.4742553 93.365258 -800 0 -6.624822 -120.05067 
	-51.670761 -125.19016 -800 0 -0.015917955 177.91482 -800 0 
	-800 0 -6.624822 -120.05067 -800 0 -1.7777924 -160.66235 
23.27 -1.5205594 110.66459 -800 0 -51.741359 -125.63078 -800 0 
	-800 0 -3.45954 92.495692 -800 0 -6.6617653 -120.64833 
	-51.741359 -125.63078 -800 0 -0.015923119 177.91355 -800 0 
	-800 0 -6.6617653 -120.64833 -800 0 -1.7547923 -160.87223 
23.28 -1.5219077 109.80855 -800 0 -51.81172 -126.07326 -800 0 
	-800 0 -3.4451657 91.626718 -800 0 -6.6981779 -121.24379 
	-51.81172 -126.07326 -800 0 -0.015928293 177.91227 -800 0 
	-800 0 -6.6981779 -121.24379 -800 0 -1.7322692 -161.07908 
23.29 -1.5228559 108.9526 -800 0 -51.881843 -126.51759 -800 0 
	-800 0 -3.4311204 90.758303 -800 0 -6.7340626 -121.8371 
	-51.881843 -126.51759 -800 0 -0.015933478 177.911 -800 0 
	-800 0 -6.7340626 -121.8371 -800 0 -1.7102081 -161.28295 
23.3 -1.5234072 108.09677 -800 0 -51.951732 -126.96377 -800 0 
	-800 0 -3.4173925 89.890418 -800 0 -6.7694218 -122.42832 
	-51.951732 -126.96377 -800 0 -0.015938679 177.90972 -800 0 
	-800 0 -6.7694218 -122.42832 -800 0 -1.6885944 -161.48391 
23.31 -1.5273234 107.26925 -800 0 -52.020477 -127.37594 -800 0 
	-800 0 -3.4051553 89.02756 -800 0 -6.8037018 -122.98904 
	-52.020477 -127.37594 -800 0 -0.015944107 177.90845 -800 0 
	-800 0 -6.8037018 -122.98904 -800 0 -1.6679319 -161.67285 
23.32 -1.5308723 106.44149 -800 0 -52.089017 -127.78996 -800 0 
	-800 0 -3.3931479 88.165109 -800 0 -6.8375301 -123.54776 
	-52.089017 -127.78996 -800 0 -0.015949529 177.90718 -800 0 
	-800 0 -6.8375301 -123.54776 -800 0 -1.6476766 -161.85923 
23.33 -1.5340562 105.61348 -800 0 -52.157354 -128.20582 -800 0 
	-800 0 -3.3813608 87.303039 -800 0 -6.8709097 -124.10452 
	-52.157354 -128.20582 -800 0 -0.015954948 177.9059 -800 0 
	-800 0 -6.8709097 -124.10452 -800 0 -1.6278163 -162.04308 
23.34 -1.5368774 104.78524 -800 0 -52.225488 -128.62352 -800 0 
	-800 0 -3.3697849 86.441329 -800 0 -6.9038431 -124.65936 
	-52.225488 -128.62352 -800 0 -0.015960364 177.90463 -800 0 
	-800 0 -6.9038431 -124.65936 -800 0 -1.6083392 -162.22446 
23.35 -1.539338 103.95677 -800 0 -52.293422 -129.04307 -800 0 
	-800 0 -3.3584113 85.579956 -800 0 -6.9363335 -125.21234 
	-52.293422 -129.04307 -800 0 -0.01596578 177.90335 -800 0 
	-800 0 -6.9363335 -125.21234 -800 0 -1.5892337 -162.40341 
23.36 -1.5414403 103.12809 -800 0 -52.361156 -129.46447 -800 0 
	-800 0 -3.3472316 84.7189 -800 0 -6.9683838 -125.76349 
	-52.361156 -129.46447 -800 0 -0.015971197 177.90208 -800 0 
	-800 0 -6.9683838 -125.76349 -800 0 -1.5704888 -162.57999 
23.37 -1.5431866 102.2992 -800 0 -52.428692 -129.8877 -800 0 
	-800 0 -3.3362377 83.858141 -800 0 -6.9999969 -126.31285 
	-52.428692 -129.8877 -800 0 -0.015976617 177.9008 -800 0 
	-800 0 -6.9999969 -126.31285 -800 0 -1.552094 -162.75424 
23.38 -1.5445791 101.47011 -800 0 -52.496032 -130.31277 -800 0 
	-800 0 -3.3254218 82.99766 -800 0 -7.0311761 -126.86046 
	-52.496032 -130.31277 -800 0 -0.015982042 177.89953 -800 0 
	-800 0 -7.0311761 -126.86046 -800 0 -1.5340387 -162.9262 
23.39 -1.54562 100.64083 -800 0 -52.563175 -130.73968 -800 0 
	-800 0 -3.3147764 82.137437 -800 0 -7.0619245 -127.40636 
	-52.563175 -130.73968 -800 0 -0.015987475 177.89825 -800 0 
	-800 0 -7.0619245 -127.40636 -800 0 -1.5163132 -163.09591 
23.4 -1.5463118 99.811375 -800 0 -52.630125 -131.16843 -800 0 
	-800 0 -3.3042942 81.277457 -800 0 -7.0922453 -127.95058 
	-52.630125 -131.16843 -800 0 -0.015992917 177.89697 -800 0 
	-800 0 -7.0922453 -127.95058 -800 0 -1.4989079 -163.26343 
23.41 -1.5500289 99.00746 -800 0 -52.695804 -131.56732 -800 0 
	-800 0 -3.2953455 80.418655 -800 0 -7.1211338 -128.49541 
	-52.695804 -131.56732 -800 0 -0.015998379 177.89569 -800 0 
	-800 0 -7.1211338 -128.49541 -800 0 -1.4840753 -163.44393 
23.42 -1.5534268 98.203072 -800 0 -52.761312 -131.968 -800 0 
	-800 0 -3.2865543 79.559806 -800 0 -7.1495391 -129.03892 
	-52.761312 -131.968 -800 0 -0.016003815 177.89441 -800 0 
	-800 0 -7.1495391 -129.03892 -800 0 -1.4695109 -163.62203 
23.43 -1.5565073 97.398218 -800 0 -52.826651 -132.37047 -800 0 
	-800 0 -3.2779143 78.700891 -800 0 -7.1774653 -129.58115 
	-52.826651 -132.37047 -800 0 -0.016009226 177.89313 -800 0 
	-800 0 -7.1774653 -129.58115 -800 0 -1.4552069 -163.79779 
23.44 -1.5592717 96.592908 -800 0 -52.89182 -132.77474 -800 0 
	-800 0 -3.2694195 77.841891 -800 0 -7.2049165 -130.12212 
	-52.89182 -132.77474 -800 0 -0.016014614 177.89185 -800 0 
	-800 0 -7.2049165 -130.12212 -800 0 -1.4411556 -163.97125 
23.45 -1.5617219 95.78715 -800 0 -52.956823 -133.18081 -800 0 
	-800 0 -3.2610644 76.98279 -800 0 -7.2318969 -130.66186 
	-52.956823 -133.18081 -800 0 -0.016019979 177.89056 -800 0 
	-800 0 -7.2318969 -130.66186 -800 0 -1.4273497 -164.14245 
23.46 -1.5638593 94.980954 -800 0 -53.021659 -133.58866 -800 0 
	-800 0 -3.2528433 76.123571 -800 0 -7.2584108 -131.20042 
	-53.021659 -133.58866 -800 0 -0.016025322 177.88928 -800 0 
	-800 0 -7.2584108 -131.20042 -800 0 -1.4137819 -164.31145 
23.47 -1.5656858 94.174329 -800 0 -53.08633 -133.9983 -800 0 
	-800 0 -3.2447513 75.26422 -800 0 -7.2844626 -131.73781 
	-53.08633 -133.9983 -800 0 -0.016030644 177.888 -800 0 
	-800 0 -7.2844626 -131.73781 -800 0 -1.4004455 -164.47829 
23.48 -1.5672029 93.367283 -800 0 -53.150837 -134.40972 -800 0 
	-800 0 -3.2367834 74.404723 -800 0 -7.3100566 -132.27406 
	-53.150837 -134.40972 -800 0 -0.016035946 177.88671 -800 0 
	-800 0 -7.3100566 -132.27406 -800 0 -1.3873336 -164.643 
23.49 -1.5684123 92.559826 -800 0 -53.215181 -134.82293 -800 0 
	-800 0 -3.2289349 73.545068 -800 0 -7.3351973 -132.8092 
	-53.215181 -134.82293 -800 0 -0.016041229 177.88542 -800 0 
	-800 0 -7.3351973 -132.8092 -800 0 -1.3744398 -164.80563 
23.5 -1.5693159 91.751968 -800 0 -53.279364 -135.23793 -800 0 
	-800 0 -3.2212016 72.685242 -800 0 -7.3598893 -133.34326 
	-53.279364 -135.23793 -800 0 -0.016046494 177.88414 -800 0 
	-800 0 -7.3598893 -133.34326 -800 0 -1.3617578 -164.96623 
23.51 -1.5727875 90.964344 -800 0 -53.342601 -135.62608 -800 0 
	-800 0 -3.2161185 71.825796 -800 0 -7.387371 -133.87348 
	-53.342601 -135.62608 -800 0 -0.016051494 177.88284 -800 0 
	-800 0 -7.387371 -133.87348 -800 0 -1.3513793 -165.10855 
23.52 -1.5759741 90.176101 -800 0 -53.405695 -136.01599 -800 0 
	-800 0 -3.21115 70.966257 -800 0 -7.4144902 -134.4032 
	-53.405695 -136.01599 -800 0 -0.016056438 177.88154 -800 0 
	-800 0 -7.4144902 -134.4032 -800 0 -1.3411754 -165.24913 
23.53 -1.578877 89.387247 -800 0 -53.468648 -136.40766 -800 0 
	-800 0 -3.2062934 70.10662 -800 0 -7.4412512 -134.93246 
	-53.468648 -136.40766 -800 0 -0.016061327 177.88024 -800 0 
	-800 0 -7.4412512 -134.93246 -800 0 -1.3311413 -165.38799 
23.54 -1.5814975 88.597793 -800 0 -53.53146 -136.80109 -800 0 
	-800 0 -3.2015463 69.246882 -800 0 -7.4676587 -135.46128 
	-53.53146 -136.80109 -800 0 -0.016066161 177.87894 -800 0 
	-800 0 -7.4676587 -135.46128 -800 0 -1.3212725 -165.52517 
23.55 -1.5838369 87.807748 -800 0 -53.594133 -137.19628 -800 0 
	-800 0 -3.1969063 68.387043 -800 0 -7.4937171 -135.98967 
	-53.594133 -137.19628 -800 0 -0.016070939 177.87764 -800 0 
	-800 0 -7.4937171 -135.98967 -800 0 -1.3115647 -165.66069 
23.56 -1.5858965 87.017121 -800 0 -53.656667 -137.59321 -800 0 
	-800 0 -3.1923716 67.527103 -800 0 -7.5194312 -136.51768 
	-53.656667 -137.59321 -800 0 -0.016075662 177.87634 -800 0 
	-800 0 -7.5194312 -136.51768 -800 0 -1.3020135 -165.79458 
23.57 -1.5876778 86.225922 -800 0 -53.719065 -137.9919 -800 0 
	-800 0 -3.1879405 66.667063 -800 0 -7.5448058 -137.0453 
	-53.719065 -137.9919 -800 0 -0.016080329 177.87504 -800 0 
	-800 0 -7.5448058 -137.0453 -800 0 -1.2926147 -165.92688 
23.58 -1.5891821 85.434161 -800 0 -53.781327 -138.39234 -800 0 
	-800 0 -3.1836117 65.806928 -800 0 -7.5698459 -137.57258 
	-53.781327 -138.39234 -800 0 -0.016084941 177.87373 -800 0 
	-800 0 -7.5698459 -137.57258 -800 0 -1.2833644 -166.0576 
23.59 -1.5904109 84.641848 -800 0 -53.843454 -138.79452 -800 0 
	-800 0 -3.179384 64.9467 -800 0 -7.5945564 -138.09953 
	-53.843454 -138.79452 -800 0 -0.016089497 177.87243 -800 0 
	-800 0 -7.5945564 -138.09953 -800 0 -1.2742586 -166.18678 
23.6 -1.5913657 83.848992 -800 0 -53.905447 -139.19844 -800 0 
	-800 0 -3.1752568 64.086389 -800 0 -7.6189427 -138.62616 
	-53.905447 -139.19844 -800 0 -0.016093999 177.87112 -800 0 
	-800 0 -7.6189427 -138.62616 -800 0 -1.2652936 -166.31444 
23.61 -1.5943285 83.072112 -800 0 -53.966761 -139.57842 -800 0 
	-800 0 -3.17137 63.246179 -800 0 -7.6414047 -139.13053 
	-53.966761 -139.57842 -800 0 -0.016098025 177.8698 -800 0 
	-800 0 -7.6414047 -139.13053 -800 0 -1.2549791 -166.4611 
23.62 -1.5970311 82.294542 -800 0 -54.027958 -139.96015 -800 0 
	-800 0 -3.1675744 62.405806 -800 0 -7.6634911 -139.63422 
	-54.027958 -139.96015 -800 0 -0.016101978 177.86848 -800 0 
	-800 0 -7.6634911 -139.63422 -800 0 -1.2448091 -166.60607 
23.63 -1.5994748 81.516294 -800 0 -54.08904 -140.34363 -800 0 
	-800 0 -3.1638699 61.565276 -800 0 -7.6852082 -140.13723 
	-54.08904 -140.34363 -800 0 -0.016105859 177.86715 -800 0 
	-800 0 -7.6852082 -140.13723 -800 0 -1.2347795 -166.74938 
23.64 -1.6016608 80.737379 -800 0 -54.150007 -140.72884 -800 0 
	-800 0 -3.1602566 60.724596 -800 0 -7.7065622 -140.63961 
	-54.150007 -140.72884 -800 0 -0.016109667 177.86583 -800 0 
	-800 0 -7.7065622 -140.63961 -800 0 -1.2248865 -166.89107 
23.65 -1.6035903 79.957806 -800 0 -54.21086 -141.11579 -800 0 
	-800 0 -3.156735 59.883776 -800 0 -7.7275596 -141.14137 
	-54.21086 -141.11579 -800 0 -0.016113401 177.8645 -800 0 
	-800 0 -7.7275596 -141.14137 -800 0 -1.2151261 -167.03115 
23.66 -1.6052648 79.177587 -800 0 -54.271602 -141.50448 -800 0 
	-800 0 -3.1533062 59.042827 -800 0 -7.7482074 -141.64254 
	-54.271602 -141.50448 -800 0 -0.016117063 177.86318 -800 0 
	-800 0 -7.7482074 -141.64254 -800 0 -1.2054948 -167.16964 
23.67 -1.6066855 78.396734 -800 0 -54.332232 -141.89489 -800 0 
	-800 0 -3.1499717 58.201763 -800 0 -7.7685124 -142.14314 
	-54.332232 -141.89489 -800 0 -0.016120651 177.86185 -800 0 
	-800 0 -7.7685124 -142.14314 -800 0 -1.1959889 -167.30659 
23.68 -1.6078539 77.615257 -800 0 -54.392753 -142.28703 -800 0 
	-800 0 -3.1467338 57.3606 -800 0 -7.7884822 -142.64321 
	-54.392753 -142.28703 -800 0 -0.016124166 177.86052 -800 0 
	-800 0 -7.7884822 -142.64321 -800 0 -1.1866052 -167.44199 
23.69 -1.6087713 76.833169 -800 0 -54.453165 -142.68089 -800 0 
	-800 0 -3.1435951 56.519356 -800 0 -7.8081245 -143.14276 
	-54.453165 -142.68089 -800 0 -0.016127607 177.85918 -800 0 
	-800 0 -7.8081245 -143.14276 -800 0 -1.1773404 -167.57588 
23.7 -1.6094393 76.050481 -800 0 -54.51347 -143.07647 -800 0 
	-800 0 -3.140559 55.678051 -800 0 -7.8274472 -143.64183 
	-54.51347 -143.07647 -800 0 -0.016130975 177.85785 -800 0 
	-800 0 -7.8274472 -143.64183 -800 0 -1.1681912 -167.70828 
23.71 -1.6117137 75.283267 -800 0 -54.573041 -143.45038 -800 0 
	-800 0 -3.1386535 54.831075 -800 0 -7.8471766 -144.14208 
	-54.573041 -143.45038 -800 0 -0.016136146 177.85649 -800 0 
	-800 0 -7.8471766 -144.14208 -800 0 -1.1606601 -167.82884 
23.72 -1.6137538 74.515344 -800 0 -54.632522 -143.82601 -800 0 
	-800 0 -3.1368562 53.984031 -800 0 -7.8666511 -144.6422 
	-54.632522 -143.82601 -800 0 -0.016141271 177.85513 -800 0 
	-800 0 -7.8666511 -144.6422 -800 0 -1.1532287 -167.94806 
23.73 -1.615561 73.746724 -800 0 -54.691914 -144.20333 -800 0 
	-800 0 -3.1351729 53.136954 -800 0 -7.8858798 -145.14222 
	-54.691914 -144.20333 -800 0 -0.016146349 177.85377 -800 0 
	-800 0 -7.8858798 -145.14222 -800 0 -1.1458947 -168.06594 
23.74 -1.6171366 72.97742 -800 0 -54.751218 -144.58235 -800 0 
	-800 0 -3.1336108 52.289876 -800 0 -7.9048721 -145.64218 
	-54.751218 -144.58235 -800 0 -0.016151381 177.8524 -800 0 
	-800 0 -7.9048721 -145.64218 -800 0 -1.1386559 -168.18252 
23.75 -1.6184818 72.207445 -800 0 -54.810436 -144.96306 -800 0 
	-800 0 -3.132178 51.442835 -800 0 -7.9236382 -146.14213 
	-54.810436 -144.96306 -800 0 -0.016156366 177.85104 -800 0 
	-800 0 -7.9236382 -146.14213 -800 0 -1.1315102 -168.29779 
23.76 -1.619598 71.43681 -800 0 -54.869569 -145.34546 -800 0 
	-800 0 -3.1308839 50.595872 -800 0 -7.9421887 -146.6421 
	-54.869569 -145.34546 -800 0 -0.016161307 177.84967 -800 0 
	-800 0 -7.9421887 -146.6421 -800 0 -1.1244558 -168.41177 
23.77 -1.6204867 70.665528 -800 0 -54.928617 -145.72954 -800 0 
	-800 0 -3.129739 49.749029 -800 0 -7.9605346 -147.14217 
	-54.928617 -145.72954 -800 0 -0.016166201 177.8483 -800 0 
	-800 0 -7.9605346 -147.14217 -800 0 -1.1174909 -168.52447 
23.78 -1.6211491 69.893614 -800 0 -54.987583 -146.11529 -800 0 
	-800 0 -3.1287555 48.90235 -800 0 -7.9786879 -147.64237 
	-54.987583 -146.11529 -800 0 -0.016171051 177.84693 -800 0 
	-800 0 -7.9786879 -147.64237 -800 0 -1.110614 -168.63589 
23.79 -1.6215868 69.121079 -800 0 -55.046467 -146.50271 -800 0 
	-800 0 -3.1279475 48.055885 -800 0 -7.9966607 -148.14277 
	-55.046467 -146.50271 -800 0 -0.016175855 177.84556 -800 0 
	-800 0 -7.9966607 -148.14277 -800 0 -1.1038238 -168.74605 
23.8 -1.6218012 68.347939 -800 0 -55.105271 -146.8918 -800 0 
	-800 0 -3.1273306 47.209683 -800 0 -8.0144663 -148.64345 
	-55.105271 -146.8918 -800 0 -0.016180615 177.84418 -800 0 
	-800 0 -8.0144663 -148.64345 -800 0 -1.0971191 -168.85494 
23.81 -1.6233495 67.589905 -800 0 -55.16337 -147.26036 -800 0 
	-800 0 -3.1266594 46.353895 -800 0 -8.0277012 -149.13108 
	-55.16337 -147.26036 -800 0 -0.016189555 177.84278 -800 0 
	-800 0 -8.0277012 -149.13108 -800 0 -1.088107 -168.99367 
23.82 -1.6246897 66.831181 -800 0 -55.221408 -147.63056 -800 0 
	-800 0 -3.1261673 45.498023 -800 0 -8.0406599 -149.61849 
	-55.221408 -147.63056 -800 0 -0.016198492 177.84137 -800 0 
	-800 0 -8.0406599 -149.61849 -800 0 -1.0791767 -169.13087 
23.83 -1.6258229 66.07178 -800 0 -55.279384 -148.00239 -800 0 
	-800 0 -3.1258765 44.642113 -800 0 -8.0533584 -150.1058 
	-55.279384 -148.00239 -800 0 -0.016207424 177.83996 -800 0 
	-800 0 -8.0533584 -150.1058 -800 0 -1.0703279 -169.26654 
23.84 -1.6267506 65.311715 -800 0 -55.3373 -148.37585 -800 0 
	-800 0 -3.125813 43.786213 -800 0 -8.0658138 -150.59311 
	-55.3373 -148.37585 -800 0 -0.016216353 177.83854 -800 0 
	-800 0 -8.0658138 -150.59311 -800 0 -1.0615608 -169.40069 
23.85 -1.627474 64.551002 -800 0 -55.395157 -148.75093 -800 0 
	-800 0 -3.126006 42.930366 -800 0 -8.0780437 -151.08058 
	-55.395157 -148.75093 -800 0 -0.016225277 177.83713 -800 0 
	-800 0 -8.0780437 -151.08058 -800 0 -1.052876 -169.53332 
23.86 -1.6279945 63.789654 -800 0 -55.452957 -149.12762 -800 0 
	-800 0 -3.1264896 42.074615 -800 0 -8.0900664 -151.56836 
	-55.452957 -149.12762 -800 0 -0.016234196 177.83571 -800 0 
	-800 0 -8.0900664 -151.56836 -800 0 -1.0442748 -169.66443 
23.87 -1.6283136 63.027685 -800 0 -55.5107 -149.50591 -800 0 
	-800 0 -3.1273024 41.218997 -800 0 -8.1019007 -152.05664 
	-55.5107 -149.50591 -800 0 -0.016243111 177.8343 -800 0 
	-800 0 -8.1019007 -152.05664 -800 0 -1.0357594 -169.794 
23.88 -1.6284325 62.265112 -800 0 -55.568389 -149.88581 -800 0 
	-800 0 -3.1284887 40.36354 -800 0 -8.1135657 -152.54565 
	-55.568389 -149.88581 -800 0 -0.01625202 177.83288 -800 0 
	-800 0 -8.1135657 -152.54565 -800 0 -1.0273327 -169.92203 
23.89 -1.6283528 61.501948 -800 0 -55.626023 -150.26729 -800 0 
	-800 0 -3.1300991 39.50826 -800 0 -8.1250807 -153.03563 
	-55.626023 -150.26729 -800 0 -0.016260923 177.83146 -800 0 
	-800 0 -8.1250807 -153.03563 -800 0 -1.0189987 -170.04852 
23.9 -1.628076 60.738209 -800 0 -55.683605 -150.65036 -800 0 
	-800 0 -3.1321915 38.653157 -800 0 -8.1364647 -153.52687 
	-55.683605 -150.65036 -800 0 -0.01626982 177.83004 -800 0 
	-800 0 -8.1364647 -153.52687 -800 0 -1.0107627 -170.17344 
23.91 -1.6290981 59.988242 -800 0 -55.740516 -151.01223 -800 0 
	-800 0 -3.1382532 37.810373 -800 0 -8.1501188 -154.04169 
	-55.740516 -151.01223 -800 0 -0.016282656 177.82859 -800 0 
	-800 0 -8.1501188 -154.04169 -800 0 -1.0072189 -170.27513 
23.92 -1.6299343 59.237621 -800 0 -55.797393 -151.37566 -800 0 
	-800 0 -3.1450209 36.967726 -800 0 -8.1637807 -154.5594 
	-55.797393 -151.37566 -800 0 -0.016295514 177.82714 -800 0 
	-800 0 -8.1637807 -154.5594 -800 0 -1.0037739 -170.37544 
23.93 -1.6305856 58.486361 -800 0 -55.854237 -151.74065 -800 0 
	-800 0 -3.152581 36.125137 -800 0 -8.1774671 -155.08041 
	-55.854237 -151.74065 -800 0 -0.016308392 177.82569 -800 0 
	-800 0 -8.1774671 -155.08041 -800 0 -1.0004368 -170.47433 
23.94 -1.6310535 57.734476 -800 0 -55.91105 -152.10719 -800 0 
	-800 0 -3.1610319 35.282472 -800 0 -8.1911922 -155.60525 
	-55.91105 -152.10719 -800 0 -0.016321288 177.82424 -800 0 
	-800 0 -8.1911922 -155.60525 -800 0 -0.99721855 -170.57178 
23.95 -1.6313392 56.981984 -800 0 -55.967833 -152.47527 -800 0 
	-800 0 -3.1704846 34.439527 -800 0 -8.2049653 -156.1345 
	-55.967833 -152.47527 -800 0 -0.0163342 177.82278 -800 0 
	-800 0 -8.2049653 -156.1345 -800 0 -0.9941326 -170.66778 
23.96 -1.6314441 56.2289 -800 0 -56.024586 -152.84489 -800 0 
	-800 0 -3.1810646 33.596008 -800 0 -8.218789 -156.66882 
	-56.024586 -152.84489 -800 0 -0.016347128 177.82133 -800 0 
	-800 0 -8.218789 -156.66882 -800 0 -0.99119501 -170.7623 
23.97 -1.6313694 55.475241 -800 0 -56.081311 -153.21602 -800 0 
	-800 0 -3.1929128 32.751498 -800 0 -8.2326564 -157.209 
	-56.081311 -153.21602 -800 0 -0.01636007 177.81987 -800 0 
	-800 0 -8.2326564 -157.209 -800 0 -0.988425 -170.85532 
23.98 -1.6311165 54.721023 -800 0 -56.13801 -153.58867 -800 0 
	-800 0 -3.2061863 31.905426 -800 0 -8.246547 -157.75593 
	-56.13801 -153.58867 -800 0 -0.016373024 177.81842 -800 0 
	-800 0 -8.246547 -157.75593 -800 0 -0.98584543 -170.94685 
23.99 -1.6306869 53.966264 -800 0 -56.194682 -153.96283 -800 0 
	-800 0 -3.2210584 31.057016 -800 0 -8.2604217 -158.31063 
	-56.194682 -153.96283 -800 0 -0.01638599 177.81696 -800 0 
	-800 0 -8.2604217 -158.31063 -800 0 -0.98348336 -171.03687 
24 -1.6300819 53.210979 -800 0 -56.251331 -154.33848 -800 0 
	-800 0 -3.2377176 30.205238 -800 0 -8.2742163 -158.87426 
	-56.251331 -154.33848 -800 0 -0.016398965 177.8155 -800 0 
	-800 0 -8.2742163 -158.87426 -800 0 -0.98137057 -171.12542 
24.01 -1.6311698 52.467725 -800 0 -56.307324 -154.68935 -800 0 
	-800 0 -3.2587604 29.3551 -800 0 -8.2947234 -159.46148 
	-56.307324 -154.68935 -800 0 -0.016415225 177.81402 -800 0 
	-800 0 -8.2947234 -159.46148 -800 0 -0.98304886 -171.19005 
24.02 -1.632089 51.723838 -800 0 -56.363316 -155.04171 -800 0 
	-800 0 -3.2819834 28.499123 -800 0 -8.315106 -160.06081 
	-56.363316 -155.04171 -800 0 -0.016431506 177.81254 -800 0 
	-800 0 -8.315106 -160.06081 -800 0 -0.98501089 -171.2532 
24.03 -1.6328406 50.979335 -800 0 -56.419307 -155.39554 -800 0 
	-800 0 -3.307582 27.635119 -800 0 -8.3351833 -160.67369 
	-56.419307 -155.39554 -800 0 -0.016447803 177.81106 -800 0 
	-800 0 -8.3351833 -160.67369 -800 0 -0.98730142 -171.31501 
24.04 -1.6334259 50.234233 -800 0 -56.475299 -155.75084 -800 0 
	-800 0 -3.3357315 26.760314 -800 0 -8.3547066 -161.30166 
	-56.475299 -155.75084 -800 0 -0.016464116 177.80958 -800 0 
	-800 0 -8.3547066 -161.30166 -800 0 -0.98997028 -171.37563 
24.05 -1.6338461 49.488552 -800 0 -56.531293 -156.1076 -800 0 
	-800 0 -3.3665631 25.871251 -800 0 -8.3733439 -161.94616 
	-56.531293 -156.1076 -800 0 -0.016480441 177.8081 -800 0 
	-800 0 -8.3733439 -161.94616 -800 0 -0.99307132 -171.43534 
24.06 -1.6341023 48.742309 -800 0 -56.587289 -156.4658 -800 0 
	-800 0 -3.4001302 24.96372 -800 0 -8.3906642 -162.60849 
	-56.587289 -156.4658 -800 0 -0.016496777 177.80662 -800 0 
	-800 0 -8.3906642 -162.60849 -800 0 -0.99666012 -171.49449 
24.07 -1.634196 47.995522 -800 0 -56.643289 -156.82543 -800 0 
	-800 0 -3.4363611 24.032722 -800 0 -8.4061252 -163.28952 
	-56.643289 -156.82543 -800 0 -0.016513122 177.80514 -800 0 
	-800 0 -8.4061252 -163.28952 -800 0 -1.0007901 -171.55359 
24.08 -1.6341283 47.248211 -800 0 -56.699293 -157.18649 -800 0 
	-800 0 -3.475001 23.072548 -800 0 -8.4190695 -163.98944 
	-56.699293 -157.18649 -800 0 -0.016529474 177.80366 -800 0 
	-800 0 -8.4190695 -163.98944 -800 0 -1.0055066 -171.6133 
24.09 -1.6339007 46.500395 -800 0 -56.755304 -157.54895 -800 0 
	-800 0 -3.5155426 22.077012 -800 0 -8.4287356 -164.70738 
	-56.755304 -157.54895 -800 0 -0.016545831 177.80217 -800 0 
	-800 0 -8.4287356 -164.70738 -800 0 -1.0108381 -171.67443 
24.1 -1.6335144 45.752094 -800 0 -56.811321 -157.91281 -800 0 
	-800 0 -3.5571561 21.039908 -800 0 -8.434294 -165.44102 
	-56.811321 -157.91281 -800 0 -0.016562191 177.80069 -800 0 
	-800 0 -8.434294 -165.44102 -800 0 -1.0167852 -171.73798 
24.11 -1.6354183 45.016398 -800 0 -56.865811 -158.24797 -800 0 
	-800 0 -3.5974688 19.951341 -800 0 -8.4263018 -166.16489 
	-56.865811 -158.24797 -800 0 -0.016580877 177.7992 -800 0 
	-800 0 -8.4263018 -166.16489 -800 0 -1.0210726 -171.83476 
24.12 -1.6371728 44.280052 -800 0 -56.920335 -158.58446 -800 0 
	-800 0 -3.6360798 18.809776 -800 0 -8.4122357 -166.89375 
	-56.920335 -158.58446 -800 0 -0.016599566 177.7977 -800 0 
	-800 0 -8.4122357 -166.89375 -800 0 -1.0259081 -171.93681 
24.13 -1.6387791 43.543077 -800 0 -56.974895 -158.92227 -800 0 
	-800 0 -3.6710256 17.614169 -800 0 -8.3915718 -167.61905 
	-56.974895 -158.92227 -800 0 -0.016618254 177.79621 -800 0 
	-800 0 -8.3915718 -167.61905 -800 0 -1.0311264 -172.04528 
24.14 -1.6402384 42.805493 -800 0 -57.029493 -159.26138 -800 0 
	-800 0 -3.7001553 16.367671 -800 0 -8.3641774 -168.33065 
	-57.029493 -159.26138 -800 0 -0.01663694 177.79472 -800 0 
	-800 0 -8.3641774 -168.33065 -800 0 -1.0364957 -172.1611 
24.15 -1.641552 42.067322 -800 0 -57.084128 -159.60178 -800 0 
	-800 0 -3.7213913 15.078374 -800 0 -8.3304257 -169.01782 
	-57.084128 -159.60178 -800 0 -0.016655622 177.79322 -800 0 
	-800 0 -8.3304257 -169.01782 -800 0 -1.0417311 -172.28471 
24.16 -1.6427213 41.328587 -800 0 -57.138801 -159.94345 -800 0 
	-800 0 -3.7330526 13.759176 -800 0 -8.2912333 -169.67064 
	-57.138801 -159.94345 -800 0 -0.016674295 177.79173 -800 0 
	-800 0 -8.2912333 -169.67064 -800 0 -1.0465227 -172.41594 
24.17 -1.6437479 40.589309 -800 0 -57.193514 -160.28638 -800 0 
	-800 0 -3.7341584 12.426563 -800 0 -8.2479918 -170.28146 
	-57.193514 -160.28638 -800 0 -0.016692959 177.79023 -800 0 
	-800 0 -8.2479918 -170.28146 -800 0 -1.0505746 -172.55396 
24.18 -1.6446334 39.849514 -800 0 -57.248267 -160.63053 -800 0 
	-800 0 -3.724619 11.098434 -800 0 -8.2023955 -170.84604 
	-57.248267 -160.63053 -800 0 -0.01671161 177.78874 -800 0 
	-800 0 -8.2023955 -170.84604 -800 0 -1.0536454 -172.69733 
24.19 -1.6453797 39.109225 -800 0 -57.30306 -160.97589 -800 0 
	-800 0 -3.7052419 9.7915687 -800 0 -8.1562088 -171.36398 
	-57.30306 -160.97589 -800 0 -0.016730246 177.78724 -800 0 
	-800 0 -8.1562088 -171.36398 -800 0 -1.0555799 -172.84421 
24.2 -1.6459887 38.368469 -800 0 -57.357894 -161.32244 -800 0 
	-800 0 -3.6775557 8.5194295 -800 0 -8.1110375 -171.83843 
	-57.357894 -161.32244 -800 0 -0.016748863 177.78574 -800 0 
	-800 0 -8.1110375 -171.83843 -800 0 -1.0563223 -172.99262 
24.21 -1.6487363 37.643487 -800 0 -57.409741 -161.6452 -800 0 
	-800 0 -3.6450094 7.2914162 -800 0 -8.0709748 -172.28496 
	-57.409741 -161.6452 -800 0 -0.016768722 177.78425 -800 0 
	-800 0 -8.0709748 -172.28496 -800 0 -1.0567162 -173.12834 
24.22 -1.6513656 36.917915 -800 0 -57.461644 -161.96899 -800 0 
	-800 0 -3.6082724 6.1113235 -800 0 -8.0341762 -172.70196 
	-57.461644 -161.96899 -800 0 -0.016788559 177.78276 -800 0 
	-800 0 -8.0341762 -172.70196 -800 0 -1.0560953 -173.26196 
24.23 -1.6538782 36.191792 -800 0 -57.513601 -162.29378 -800 0 
	-800 0 -3.5692661 4.9789564 -800 0 -8.0010901 -173.09709 
	-57.513601 -162.29378 -800 0 -0.016808373 177.78126 -800 0 
	-800 0 -8.0010901 -173.09709 -800 0 -1.0546186 -173.39238 
24.24 -1.6562758 35.465157 -800 0 -57.565611 -162.61953 -800 0 
	-800 0 -3.5296007 3.8910901 -800 0 -7.9718254 -173.47752 
	-57.565611 -162.61953 -800 0 -0.01682816 177.77977 -800 0 
	-800 0 -7.9718254 -173.47752 -800 0 -1.0524619 -173.51891 
24.25 -1.6585601 34.738056 -800 0 -57.617669 -162.94622 -800 0 
	-800 0 -3.4905117 2.8426658 -800 0 -7.9462402 -173.84941 
	-57.617669 -162.94622 -800 0 -0.016847915 177.77827 -800 0 
	-800 0 -7.9462402 -173.84941 -800 0 -1.0497968 -173.64123 
24.26 -1.6607328 34.010543 -800 0 -57.66977 -163.27381 -800 0 
	-800 0 -3.4528677 1.8278092 -800 0 -7.9240298 -174.21773 
	-57.66977 -163.27381 -800 0 -0.016867636 177.77678 -800 0 
	-800 0 -7.9240298 -174.21773 -800 0 -1.0467774 -173.75931 
24.27 -1.6627951 33.282681 -800 0 -57.72191 -163.60227 -800 0 
	-800 0 -3.4172212 0.84058054 -800 0 -7.9048033 -174.58624 
	-57.72191 -163.60227 -800 0 -0.016887319 177.77528 -800 0 
	-800 0 -7.9048033 -174.58624 -800 0 -1.0435341 -173.87329 
24.28 -1.6647473 32.554542 -800 0 -57.774077 -163.93156 -800 0 
	-800 0 -3.3838733 -0.12457067 -800 0 -7.8881386 -174.95765 
	-57.774077 -163.93156 -800 0 -0.016906958 177.77379 -800 0 
	-800 0 -7.8881386 -174.95765 -800 0 -1.0401713 -173.98347 
24.29 -1.6665884 31.826215 -800 0 -57.826262 -164.26167 -800 0 
	-800 0 -3.3529401 -1.0725587 -800 0 -7.8736201 -175.33379 
	-57.826262 -164.26167 -800 0 -0.016926549 177.77229 -800 0 
	-800 0 -7.8736201 -175.33379 -800 0 -1.03677 -174.0902 
24.3 -1.6683153 31.0978 -800 0 -57.878449 -164.59259 -800 0 
	-800 0 -3.3244089 -2.0075754 -800 0 -7.8608611 -175.71578 
	-57.878449 -164.59259 -800 0 -0.016946089 177.77079 -800 0 
	-800 0 -7.8608611 -175.71578 -800 0 -1.0333899 -174.19385 
24.31 -1.6710833 30.385373 -800 0 -57.927524 -164.91282 -800 0 
	-800 0 -3.3003217 -2.9099867 -800 0 -7.8503843 -176.11416 
	-57.927524 -164.91282 -800 0 -0.016965834 177.76931 -800 0 
	-800 0 -7.8503843 -176.11416 -800 0 -1.0317369 -174.30298 
24.32 -1.6737131 29.673002 -800 0 -57.976559 -165.23401 -800 0 
	-800 0 -3.2784795 -3.8060369 -800 0 -7.8409457 -176.51961 
	-57.976559 -165.23401 -800 0 -0.016985526 177.76783 -800 0 
	-800 0 -7.8409457 -176.51961 -800 0 -1.0301832 -174.40986 
24.33 -1.6761778 28.960777 -800 0 -58.025536 -165.55634 -800 0 
	-800 0 -3.25871 -4.6979776 -800 0 -7.8322906 -176.93211 
	-58.025536 -165.55634 -800 0 -0.017005159 177.76634 -800 0 
	-800 0 -7.8322906 -176.93211 -800 0 -1.0287476 -174.51478 
24.34 -1.6784407 28.248742 -800 0 -58.07444 -165.88005 -800 0 
	-800 0 -3.2408325 -5.5875889 -800 0 -7.8242032 -177.35146 
	-58.07444 -165.88005 -800 0 -0.017024729 177.76486 -800 0 
	-800 0 -7.8242032 -177.35146 -800 0 -1.027441 -174.61802 
24.35 -1.680456 27.53685 -800 0 -58.12327 -166.20551 -800 0 
	-800 0 -3.2246682 -6.4762641 -800 0 -7.8165024 -177.77739 
	-58.12327 -166.20551 -800 0 -0.017044228 177.76338 -800 0 
	-800 0 -7.8165024 -177.77739 -800 0 -1.0262693 -174.71982 
24.36 -1.6821747 26.824907 -800 0 -58.172051 -166.53313 -800 0 
	-800 0 -3.2100461 -7.3650848 -800 0 -7.8090371 -178.20953 
	-58.172051 -166.53313 -800 0 -0.017063653 177.76189 -800 0 
	-800 0 -7.8090371 -178.20953 -800 0 -1.025234 -174.82039 
24.37 -1.6835568 26.112545 -800 0 -58.22084 -166.86333 -800 0 
	-800 0 -3.1968074 -8.2548812 -800 0 -7.8016822 -178.64748 
	-58.22084 -166.86333 -800 0 -0.017082996 177.76041 -800 0 
	-800 0 -7.8016822 -178.64748 -800 0 -1.0243341 -174.91992 
24.38 -1.684589 25.399236 -800 0 -58.269729 -167.19633 -800 0 
	-800 0 -3.1848058 -9.1462882 -800 0 -7.7943337 -179.09087 
	-58.269729 -167.19633 -800 0 -0.017102252 177.75892 -800 0 
	-800 0 -7.7943337 -179.09087 -800 0 -1.0235666 -175.01858 
24.39 -1.6852997 24.684402 -800 0 -58.31883 -167.53207 -800 0 
	-800 0 -3.1739087 -10.039786 -800 0 -7.7869059 -179.53928 
	-58.31883 -167.53207 -800 0 -0.017121415 177.75744 -800 0 
	-800 0 -7.7869059 -179.53928 -800 0 -1.0229274 -175.11648 
24.4 -1.6857611 23.967597 -800 0 -58.368246 -167.87013 -800 0 
	-800 0 -3.1639963 -10.935734 -800 0 -7.7793277 -179.99235 
	-58.368246 -167.87013 -800 0 -0.017140478 177.75595 -800 0 
	-800 0 -7.7793277 -179.99235 -800 0 -1.0224118 -175.21377 
24.41 -1.6862755 23.258681 -800 0 -58.416355 -168.20676 -800 0 
	-800 0 -3.1559863 -11.851569 -800 0 -7.7719277 179.55602 
	-58.416355 -168.20676 -800 0 -0.017158908 177.75449 -800 0 
	-800 0 -7.7719277 179.55602 -800 0 -1.0212628 -175.2982 
24.42 -1.6867797 22.547573 -800 0 -58.464874 -168.54392 -800 0 
	-800 0 -3.1486972 -12.770359 -800 0 -7.7643356 179.1006 
	-58.464874 -168.54392 -800 0 -0.017177242 177.75302 -800 0 
	-800 0 -7.7643356 179.1006 -800 0 -1.0202255 -175.38213 
24.43 -1.6873416 21.834764 -800 0 -58.513736 -168.88097 -800 0 
	-800 0 -3.1420422 -13.692236 -800 0 -7.7565117 178.64174 
	-58.513736 -168.88097 -800 0 -0.017195475 177.75156 -800 0 
	-800 0 -7.7565117 178.64174 -800 0 -1.0192937 -175.46565 
24.44 -1.6879873 21.120791 -800 0 -58.562859 -169.21758 -800 0 
	-800 0 -3.1359439 -14.617288 -800 0 -7.7484231 178.17972 
	-58.562859 -169.21758 -800 0 -0.017213601 177.7501 -800 0 
	-800 0 -7.7484231 178.17972 -800 0 -1.0184613 -175.54882 
24.45 -1.6887118 20.406118 -800 0 -58.612165 -169.5537 -800 0 
	-800 0 -3.1303326 -15.545571 -800 0 -7.7400427 177.71485 
	-58.612165 -169.5537 -800 0 -0.017231615 177.74863 -800 0 
	-800 0 -7.7400427 177.71485 -800 0 -1.0177228 -175.63171 
24.46 -1.6894925 19.691084 -800 0 -58.661592 -169.8894 -800 0 
	-800 0 -3.1251462 -16.477115 -800 0 -7.7313481 177.24736 
	-58.661592 -169.8894 -800 0 -0.017249515 177.74717 -800 0 
	-800 0 -7.7313481 177.24736 -800 0 -1.0170726 -175.71438 
24.47 -1.6903011 18.975911 -800 0 -58.7111 -170.22484 -800 0 
	-800 0 -3.1203292 -17.411929 -800 0 -7.7223207 176.77751 
	-58.7111 -170.22484 -800 0 -0.017267294 177.7457 -800 0 
	-800 0 -7.7223207 176.77751 -800 0 -1.0165057 -175.79686 
24.48 -1.69111 18.260726 -800 0 -58.760664 -170.56022 -800 0 
	-800 0 -3.1158318 -18.350011 -800 0 -7.7129449 176.30551 
	-58.760664 -170.56022 -800 0 -0.017284949 177.74423 -800 0 
	-800 0 -7.7129449 176.30551 -800 0 -1.0160174 -175.8792 
24.49 -1.6918954 17.5456 -800 0 -58.810269 -170.89568 -800 0 
	-800 0 -3.1116087 -19.291346 -800 0 -7.7032079 175.83155 
	-58.810269 -170.89568 -800 0 -0.017302478 177.74276 -800 0 
	-800 0 -7.7032079 175.83155 -800 0 -1.0156031 -175.96144 
24.5 -1.6926383 16.830562 -800 0 -58.859911 -171.23138 -800 0 
	-800 0 -3.1076196 -20.235915 -800 0 -7.6930986 175.35583 
	-58.859911 -171.23138 -800 0 -0.017319877 177.74129 -800 0 
	-800 0 -7.6930986 175.35583 -800 0 -1.0152589 -176.04362 
24.51 -1.693327 16.120661 -800 0 -58.908917 -171.56448 -800 0 
	-800 0 -3.1033172 -21.190059 -800 0 -7.6803483 174.86152 
	-58.908917 -171.56448 -800 0 -0.017336113 177.73985 -800 0 
	-800 0 -7.6803483 174.86152 -800 0 -1.0165527 -176.1293 
24.52 -1.6939521 15.410914 -800 0 -58.95794 -171.89802 -800 0 
	-800 0 -3.0992209 -22.147658 -800 0 -7.6671754 174.36539 
	-58.95794 -171.89802 -800 0 -0.017352229 177.73842 -800 0 
	-800 0 -7.6671754 174.36539 -800 0 -1.0179241 -176.21498 
24.53 -1.6945042 14.701303 -800 0 -59.006988 -172.23208 -800 0 
	-800 0 -3.0953023 -23.108693 -800 0 -7.653573 173.86756 
	-59.006988 -172.23208 -800 0 -0.017368226 177.73698 -800 0 
	-800 0 -7.653573 173.86756 -800 0 -1.0193704 -176.3007 
24.54 -1.6949769 13.99181 -800 0 -59.056068 -172.56671 -800 0 
	-800 0 -3.0915351 -24.073143 -800 0 -7.6395351 173.36815 
	-59.056068 -172.56671 -800 0 -0.017384102 177.73553 -800 0 
	-800 0 -7.6395351 173.36815 -800 0 -1.0208892 -176.38648 
24.55 -1.6953654 13.282423 -800 0 -59.105188 -172.90195 -800 0 
	-800 0 -3.0878958 -25.040989 -800 0 -7.6250563 172.86728 
	-59.105188 -172.90195 -800 0 -0.017399859 177.73409 -800 0 
	-800 0 -7.6250563 172.86728 -800 0 -1.0224785 -176.47234 
24.56 -1.6956666 12.573135 -800 0 -59.154354 -173.23783 -800 0 
	-800 0 -3.0843623 -26.012214 -800 0 -7.6101317 172.36506 
	-59.154354 -173.23783 -800 0 -0.017415496 177.73265 -800 0 
	-800 0 -7.6101317 172.36506 -800 0 -1.0241362 -176.55831 
24.57 -1.6958783 11.863942 -800 0 -59.203573 -173.57435 -800 0 
	-800 0 -3.080915 -26.986801 -800 0 -7.5947571 171.86158 
	-59.203573 -173.57435 -800 0 -0.017431016 177.7312 -800 0 
	-800 0 -7.5947571 171.86158 -800 0 -1.0258606 -176.6444 
24.58 -1.6959992 11.154844 -800 0 -59.252849 -173.91153 -800 0 
	-800 0 -3.0775355 -27.964734 -800 0 -7.5789284 171.35693 
	-59.252849 -173.91153 -800 0 -0.017446421 177.72975 -800 0 
	-800 0 -7.5789284 171.35693 -800 0 -1.0276504 -176.73065 
24.59 -1.6960283 10.445844 -800 0 -59.302187 -174.24937 -800 0 
	-800 0 -3.0742065 -28.946004 -800 0 -7.5626417 170.8512 
	-59.302187 -174.24937 -800 0 -0.017461714 177.72831 -800 0 
	-800 0 -7.5626417 170.8512 -800 0 -1.029504 -176.81706 
24.6 -1.6959653 9.7369483 -800 0 -59.351593 -174.58786 -800 0 
	-800 0 -3.0709123 -29.930601 -800 0 -7.5458933 170.34445 
	-59.351593 -174.58786 -800 0 -0.017476898 177.72685 -800 0 
	-800 0 -7.5458933 170.34445 -800 0 -1.0314202 -176.90367 
24.61 -1.6958391 9.0315025 -800 0 -59.400625 -174.92357 -800 0 
	-800 0 -3.0665373 -30.930781 -800 0 -7.5264311 169.86611 
	-59.400625 -174.92357 -800 0 -0.017490754 177.72544 -800 0 
	-800 0 -7.5264311 169.86611 -800 0 -1.0326495 -177.00127 
24.62 -1.6956185 8.3261889 -800 0 -59.449724 -175.25999 -800 0 
	-800 0 -3.0620069 -31.93467 -800 0 -7.5064045 169.38734 
	-59.449724 -175.25999 -800 0 -0.017504517 177.72403 -800 0 
	-800 0 -7.5064045 169.38734 -800 0 -1.0339243 -177.09935 
24.63 -1.6953042 7.6210167 -800 0 -59.498894 -175.5971 -800 0 
	-800 0 -3.0573022 -32.94227 -800 0 -7.4858076 168.90822 
	-59.498894 -175.5971 -800 0 -0.01751819 177.72261 -800 0 
	-800 0 -7.4858076 168.90822 -800 0 -1.0352431 -177.19794 
24.64 -1.6948967 6.9159976 -800 0 -59.54814 -175.93489 -800 0 
	-800 0 -3.0524049 -33.953588 -800 0 -7.4646346 168.42882 
	-59.54814 -175.93489 -800 0 -0.017531779 177.7212 -800 0 
	-800 0 -7.4646346 168.42882 -800 0 -1.0366048 -177.29707 
24.65 -1.6943967 6.2111449 -800 0 -59.597464 -176.27334 -800 0 
	-800 0 -3.0472971 -34.968631 -800 0 -7.4428797 167.94922 
	-59.597464 -176.27334 -800 0 -0.017545288 177.71978 -800 0 
	-800 0 -7.4428797 167.94922 -800 0 -1.0380081 -177.39675 
24.66 -1.6938049 5.5064735 -800 0 -59.64687 -176.61243 -800 0 
	-800 0 -3.0419608 -35.987411 -800 0 -7.4205367 167.46948 
	-59.64687 -176.61243 -800 0 -0.017558721 177.71836 -800 0 
	-800 0 -7.4205367 167.46948 -800 0 -1.0394518 -177.49702 
24.67 -1.6931221 4.8019995 -800 0 -59.69636 -176.95214 -800 0 
	-800 0 -3.0363789 -37.009938 -800 0 -7.3975999 166.98965 
	-59.69636 -176.95214 -800 0 -0.017572083 177.71693 -800 0 
	-800 0 -7.3975999 166.98965 -800 0 -1.0409348 -177.59789 
24.68 -1.6923488 4.0977401 -800 0 -59.745938 -177.29246 -800 0 
	-800 0 -3.0305343 -38.036227 -800 0 -7.3740632 166.50981 
	-59.745938 -177.29246 -800 0 -0.017585381 177.71551 -800 0 
	-800 0 -7.3740632 166.50981 -800 0 -1.042456 -177.69941 
24.69 -1.6914859 3.3937134 -800 0 -59.795606 -177.63336 -800 0 
	-800 0 -3.0244096 -39.066294 -800 0 -7.3499206 166.03 
	-59.795606 -177.63336 -800 0 -0.017598618 177.71408 -800 0 
	-800 0 -7.3499206 166.03 -800 0 -1.0440145 -177.80159 
24.7 -1.6905342 2.6899383 -800 0 -59.845366 -177.97483 -800 0 
	-800 0 -3.0179879 -40.100159 -800 0 -7.3251659 165.55028 
	-59.845366 -177.97483 -800 0 -0.017611799 177.71265 -800 0 
	-800 0 -7.3251659 165.55028 -800 0 -1.0456092 -177.90446 
24.71 -1.6897449 1.9909357 -800 0 -59.894712 -178.31189 -800 0 
	-800 0 -3.0197633 -41.111653 -800 0 -7.3039828 165.01125 
	-59.894712 -178.31189 -800 0 -0.017624051 177.71126 -800 0 
	-800 0 -7.3039828 165.01125 -800 0 -1.0505627 -177.99569 
24.72 -1.6888691 1.2921989 -800 0 -59.944151 -178.6495 -800 0 
	-800 0 -3.0215642 -42.127247 -800 0 -7.2822682 164.47093 
	-59.944151 -178.6495 -800 0 -0.017636257 177.70987 -800 0 
	-800 0 -7.2822682 164.47093 -800 0 -1.0556105 -178.08731 
24.73 -1.6879075 0.59374782 -800 0 -59.993686 -178.98764 -800 0 
	-800 0 -3.0233845 -43.146995 -800 0 -7.2600179 163.92933 
	-59.993686 -178.98764 -800 0 -0.01764842 177.70847 -800 0 
	-800 0 -7.2600179 163.92933 -800 0 -1.0607542 -178.17933 
24.74 -1.6868611 -0.10439734 -800 0 -60.043317 -179.3263 -800 0 
	-800 0 -3.0252181 -44.170956 -800 0 -7.2372278 163.38648 
	-60.043317 -179.3263 -800 0 -0.017660545 177.70707 -800 0 
	-800 0 -7.2372278 163.38648 -800 0 -1.0659954 -178.27179 
24.75 -1.6857307 -0.80221585 -800 0 -60.093046 -179.66544 -800 0 
	-800 0 -3.0270591 -45.199194 -800 0 -7.2138936 162.84236 
	-60.093046 -179.66544 -800 0 -0.017672636 177.70567 -800 0 
	-800 0 -7.2138936 162.84236 -800 0 -1.0713361 -178.36469 
24.76 -1.684517 -1.4996867 -800 0 -60.142874 179.99496 -800 0 
	-800 0 -3.0289016 -46.231776 -800 0 -7.1900109 162.29701 
	-60.142874 179.99496 -800 0 -0.017684698 177.70427 -800 0 
	-800 0 -7.1900109 162.29701 -800 0 -1.076778 -178.45804 
24.77 -1.6832209 -2.1967885 -800 0 -60.192802 179.65491 -800 0 
	-800 0 -3.0307399 -47.268773 -800 0 -7.1655756 161.7504 
	-60.192802 179.65491 -800 0 -0.017696734 177.70286 -800 0 
	-800 0 -7.1655756 161.7504 -800 0 -1.0823231 -178.55187 
24.78 -1.6818432 -2.8934997 -800 0 -60.242831 179.31445 -800 0 
	-800 0 -3.0325685 -48.31026 -800 0 -7.1405833 161.20256 
	-60.242831 179.31445 -800 0 -0.017708748 177.70146 -800 0 
	-800 0 -7.1405833 161.20256 -800 0 -1.0879735 -178.64619 
24.79 -1.6803846 -3.5897985 -800 0 -60.292963 178.97359 -800 0 
	-800 0 -3.0343816 -49.356319 -800 0 -7.1150298 160.65347 
	-60.292963 178.97359 -800 0 -0.017720744 177.70005 -800 0 
	-800 0 -7.1150298 160.65347 -800 0 -1.0937315 -178.74101 
24.8 -1.678846 -4.285663 -800 0 -60.343197 178.63236 -800 0 
	-800 0 -3.0361737 -50.407034 -800 0 -7.088911 160.10314 
	-60.343197 178.63236 -800 0 -0.017732725 177.69864 -800 0 
	-800 0 -7.088911 160.10314 -800 0 -1.0995994 -178.83636 
24.81 -1.6777801 -4.9745529 -800 0 -60.392832 178.29725 -800 0 
	-800 0 -3.0427662 -51.460681 -800 0 -7.0670109 159.50676 
	-60.392832 178.29725 -800 0 -0.017744414 177.69726 -800 0 
	-800 0 -7.0670109 159.50676 -800 0 -1.1076961 -178.91247 
24.82 -1.6766388 -5.6630166 -800 0 -60.442574 177.9618 -800 0 
	-800 0 -3.0495534 -52.518712 -800 0 -7.0446743 158.9083 
	-60.442574 177.9618 -800 0 -0.017756091 177.69588 -800 0 
	-800 0 -7.0446743 158.9083 -800 0 -1.1159253 -178.98869 
24.83 -1.6754228 -6.3510318 -800 0 -60.492421 177.62603 -800 0 
	-800 0 -3.0565382 -53.581213 -800 0 -7.0219006 158.30774 
	-60.492421 177.62603 -800 0 -0.017767757 177.6945 -800 0 
	-800 0 -7.0219006 158.30774 -800 0 -1.1242902 -179.06501 
24.84 -1.6741328 -7.0385767 -800 0 -60.542375 177.28997 -800 0 
	-800 0 -3.0637238 -54.648279 -800 0 -6.9986897 157.70504 
	-60.542375 177.28997 -800 0 -0.017779416 177.69312 -800 0 
	-800 0 -6.9986897 157.70504 -800 0 -1.132794 -179.14143 
24.85 -1.6727695 -7.725629 -800 0 -60.592435 176.95364 -800 0 
	-800 0 -3.0711136 -55.720006 -800 0 -6.9750421 157.10017 
	-60.592435 176.95364 -800 0 -0.017791071 177.69174 -800 0 
	-800 0 -6.9750421 157.10017 -800 0 -1.1414399 -179.21793 
24.86 -1.6713336 -8.4121665 -800 0 -60.642603 176.61706 -800 0 
	-800 0 -3.0787114 -56.796499 -800 0 -6.9509582 156.49309 
	-60.642603 176.61706 -800 0 -0.017802725 177.69035 -800 0 
	-800 0 -6.9509582 156.49309 -800 0 -1.1502315 -179.29452 
24.87 -1.6698257 -9.0981669 -800 0 -60.692877 176.28025 -800 0 
	-800 0 -3.0865213 -57.877865 -800 0 -6.9264396 155.88378 
	-60.692877 176.28025 -800 0 -0.017814381 177.68896 -800 0 
	-800 0 -6.9264396 155.88378 -800 0 -1.1591724 -179.37117 
24.88 -1.6682467 -9.783608 -800 0 -60.743259 175.94324 -800 0 
	-800 0 -3.0945476 -58.964217 -800 0 -6.901488 155.27217 
	-60.743259 175.94324 -800 0 -0.01782604 177.68757 -800 0 
	-800 0 -6.901488 155.27217 -800 0 -1.1682662 -179.44787 
24.89 -1.6665972 -10.468467 -800 0 -60.793747 175.60605 -800 0 
	-800 0 -3.1027951 -60.055676 -800 0 -6.8761061 154.65823 
	-60.793747 175.60605 -800 0 -0.017837706 177.68618 -800 0 
	-800 0 -6.8761061 154.65823 -800 0 -1.177517 -179.5246 
24.9 -1.6648778 -11.152723 -800 0 -60.844343 175.2687 -800 0 
	-800 0 -3.1112685 -61.152368 -800 0 -6.8502973 154.04188 
	-60.844343 175.2687 -800 0 -0.01784938 177.68479 -800 0 
	-800 0 -6.8502973 154.04188 -800 0 -1.1869286 -179.60134 
24.91 -1.6639043 -11.828348 -800 0 -60.894048 174.93806 -800 0 
	-800 0 -3.1200723 -62.275738 -800 0 -6.8217246 153.43579 
	-60.894048 174.93806 -800 0 -0.01786137 177.68343 -800 0 
	-800 0 -6.8217246 153.43579 -800 0 -1.196082 -179.68573 
24.92 -1.6628661 -12.503397 -800 0 -60.943863 174.60731 -800 0 
	-800 0 -3.1289729 -63.405346 -800 0 -6.7926652 152.82731 
	-60.943863 174.60731 -800 0 -0.017873368 177.68207 -800 0 
	-800 0 -6.7926652 152.82731 -800 0 -1.205412 -179.77027 
24.93 -1.6617639 -13.177848 -800 0 -60.993788 174.27646 -800 0 
	-800 0 -3.1379711 -64.541352 -800 0 -6.7631241 152.21636 
	-60.993788 174.27646 -800 0 -0.017885378 177.68071 -800 0 
	-800 0 -6.7631241 152.21636 -800 0 -1.2149239 -179.85492 
24.94 -1.6605981 -13.851678 -800 0 -61.043822 173.94555 -800 0 
	-800 0 -3.1470676 -65.683922 -800 0 -6.7331078 151.60284 
	-61.043822 173.94555 -800 0 -0.017897401 177.67935 -800 0 
	-800 0 -6.7331078 151.60284 -800 0 -1.2246235 -179.93964 
24.95 -1.6593693 -14.524865 -800 0 -61.093966 173.61459 -800 0 
	-800 0 -3.1562632 -66.833231 -800 0 -6.7026246 150.98665 
	-61.093966 173.61459 -800 0 -0.01790944 177.67799 -800 0 
	-800 0 -6.7026246 150.98665 -800 0 -1.2345169 179.97562 
24.96 -1.6580781 -15.197389 -800 0 -61.144218 173.28362 -800 0 
	-800 0 -3.1655589 -67.989463 -800 0 -6.6716848 150.36766 
	-61.144218 173.28362 -800 0 -0.017921496 177.67662 -800 0 
	-800 0 -6.6716848 150.36766 -800 0 -1.2446108 179.89091 
24.97 -1.656725 -15.869227 -800 0 -61.194579 172.95265 -800 0 
	-800 0 -3.174956 -69.152808 -800 0 -6.6403011 149.74571 
	-61.194579 172.95265 -800 0 -0.017933573 177.67526 -800 0 
	-800 0 -6.6403011 149.74571 -800 0 -1.2549128 179.80632 
24.98 -1.6553105 -16.540358 -800 0 -61.245047 172.62171 -800 0 
	-800 0 -3.1844558 -70.323463 -800 0 -6.608489 149.12064 
	-61.245047 172.62171 -800 0 -0.017945672 177.67389 -800 0 
	-800 0 -6.608489 149.12064 -800 0 -1.2654314 179.72194 
24.99 -1.6538351 -17.210759 -800 0 -61.295622 172.29082 -800 0 
	-800 0 -3.1940598 -71.501637 -800 0 -6.5762671 148.49222 
	-61.295622 172.29082 -800 0 -0.017957795 177.67252 -800 0 
	-800 0 -6.5762671 148.49222 -800 0 -1.2761766 179.63786 
25 -1.6522996 -17.88041 -800 0 -61.346304 171.96002 -800 0 
	-800 0 -3.2037698 -72.687545 -800 0 -6.5436574 147.86022 
	-61.346304 171.96002 -800 0 -0.017969944 177.67115 -800 0 
	-800 0 -6.5436574 147.86022 -800 0 -1.2871601 179.55422 
25.01 -1.6517548 -18.543333 -800 0 -61.396335 171.63878 -800 0 
	-800 0 -3.2162543 -73.886128 -800 0 -6.5105803 147.21709 
	-61.396335 171.63878 -800 0 -0.017983132 177.66982 -800 0 
	-800 0 -6.5105803 147.21709 -800 0 -1.2988634 179.4711 
25.02 -1.6511509 -19.205534 -800 0 -61.446476 171.31768 -800 0 
	-800 0 -3.2288802 -75.093477 -800 0 -6.4771639 146.56947 
	-61.446476 171.31768 -800 0 -0.017996345 177.66849 -800 0 
	-800 0 -6.4771639 146.56947 -800 0 -1.3108477 179.38882 
25.03 -1.6504882 -19.866994 -800 0 -61.496726 170.99673 -800 0 
	-800 0 -3.24165 -76.309852 -800 0 -6.4434424 145.91689 
	-61.496726 170.99673 -800 0 -0.018009586 177.66715 -800 0 
	-800 0 -6.4434424 145.91689 -800 0 -1.323136 179.30761 
25.04 -1.6497673 -20.527691 -800 0 -61.547083 170.67596 -800 0 
	-800 0 -3.2545665 -77.535526 -800 0 -6.4094537 145.25874 
	-61.547083 170.67596 -800 0 -0.018022856 177.66582 -800 0 
	-800 0 -6.4094537 145.25874 -800 0 -1.3357586 179.22775 
25.05 -1.6489884 -21.187603 -800 0 -61.597546 170.3554 -800 0 
	-800 0 -3.2676329 -78.770781 -800 0 -6.3752376 144.59428 
	-61.597546 170.3554 -800 0 -0.018036157 177.66448 -800 0 
	-800 0 -6.3752376 144.59428 -800 0 -1.3487556 179.14957 
25.06 -1.648152 -21.846711 -800 0 -61.648113 170.03508 -800 0 
	-800 0 -3.2808525 -80.015912 -800 0 -6.3408327 143.92252 
	-61.648113 170.03508 -800 0 -0.01804949 177.66314 -800 0 
	-800 0 -6.3408327 143.92252 -800 0 -1.3621812 179.07347 
25.07 -1.6472584 -22.504994 -800 0 -61.698783 169.71502 -800 0 
	-800 0 -3.2942292 -81.271224 -800 0 -6.3062703 143.24224 
	-61.698783 169.71502 -800 0 -0.018062858 177.66181 -800 0 
	-800 0 -6.3062703 143.24224 -800 0 -1.3761102 178.99991 
25.08 -1.6463082 -23.16243 -800 0 -61.749554 169.39526 -800 0 
	-800 0 -3.3077672 -82.537036 -800 0 -6.2715629 142.55183 
	-61.749554 169.39526 -800 0 -0.018076261 177.66047 -800 0 
	-800 0 -6.2715629 142.55183 -800 0 -1.3906464 178.9294 
25.09 -1.6453016 -23.818999 -800 0 -61.800424 169.07582 -800 0 
	-800 0 -3.3214712 -83.813678 -800 0 -6.2366845 141.84922 
	-61.800424 169.07582 -800 0 -0.018089702 177.65913 -800 0 
	-800 0 -6.2366845 141.84922 -800 0 -1.4059348 178.8625 
25.1 -1.6442392 -24.47468 -800 0 -61.85139 168.75674 -800 0 
	-800 0 -3.3353463 -85.101494 -800 0 -6.2015365 141.13181 
	-61.85139 168.75674 -800 0 -0.018103182 177.65779 -800 0 
	-800 0 -6.2015365 141.13181 -800 0 -1.422178 178.79973 
25.11 -1.6441456 -25.126269 -800 0 -61.902057 168.44936 -800 0 
	-800 0 -3.3534756 -86.322301 -800 0 -6.1762023 140.38573 
	-61.902057 168.44936 -800 0 -0.018118394 177.65649 -800 0 
	-800 0 -6.1762023 140.38573 -800 0 -1.4398322 178.76791 
25.12 -1.6439938 -25.776989 -800 0 -61.95282 168.14241 -800 0 
	-800 0 -3.3722 -87.552003 -800 0 -6.1501932 139.61766 
	-61.95282 168.14241 -800 0 -0.018133646 177.65519 -800 0 
	-800 0 -6.1501932 139.61766 -800 0 -1.4590186 178.74119 
25.13 -1.6437842 -26.42682 -800 0 -62.003676 167.8359 -800 0 
	-800 0 -3.3915476 -88.790886 -800 0 -6.1227561 138.82382 
	-62.003676 167.8359 -800 0 -0.018148939 177.6539 -800 0 
	-800 0 -6.1227561 138.82382 -800 0 -1.4802061 178.71871 
25.14 -1.643517 -27.075741 -800 0 -62.054622 167.52988 -800 0 
	-800 0 -3.4115483 -90.039245 -800 0 -6.0926922 138.00144 
	-62.054622 167.52988 -800 0 -0.018164275 177.6526 -800 0 
	-800 0 -6.0926922 138.00144 -800 0 -1.5039411 178.69817 
25.15 -1.6431925 -27.723733 -800 0 -62.105653 167.22437 -800 0 
	-800 0 -3.432234 -91.297389 -800 0 -6.0583054 137.15088 
	-62.105653 167.22437 -800 0 -0.018179656 177.6513 -800 0 
	-800 0 -6.0583054 137.15088 -800 0 -1.5307433 178.675 
25.16 -1.6428111 -28.370775 -800 0 -62.156765 166.9194 -800 0 
	-800 0 -3.4536387 -92.565635 -800 0 -6.0175875 136.27855 
	-62.156765 166.9194 -800 0 -0.018195081 177.65 -800 0 
	-800 0 -6.0175875 136.27855 -800 0 -1.5608768 178.64192 
25.17 -1.642373 -29.016847 -800 0 -62.207954 166.615 -800 0 
	-800 0 -3.475799 -93.844313 -800 0 -5.9688385 135.39951 
	-62.207954 166.615 -800 0 -0.018210552 177.6487 -800 0 
	-800 0 -5.9688385 135.39951 -800 0 -1.5940062 178.58961 
25.18 -1.6418786 -29.661931 -800 0 -62.259215 166.31121 -800 0 
	-800 0 -3.4987536 -95.133763 -800 0 -5.9116859 134.53645 
	-62.259215 166.31121 -800 0 -0.01822607 177.6474 -800 0 
	-800 0 -5.9116859 134.53645 -800 0 -1.6289166 178.50954 
25.19 -1.6413282 -30.306007 -800 0 -62.310543 166.00806 -800 0 
	-800 0 -3.5225444 -96.434337 -800 0 -5.8478931 133.71254 
	-62.310543 166.00806 -800 0 -0.018241635 177.64609 -800 0 
	-800 0 -5.8478931 133.71254 -800 0 -1.663635 178.39837 
25.2 -1.6407221 -30.949056 -800 0 -62.361931 165.70558 -800 0 
	-800 0 -3.5472158 -97.746398 -800 0 -5.7810618 132.9411 
	-62.361931 165.70558 -800 0 -0.018257248 177.64479 -800 0 
	-800 0 -5.7810618 132.9411 -800 0 -1.6961158 178.26084 
25.21 -1.6407338 -31.588348 -800 0 -62.412936 165.41389 -800 0 
	-800 0 -3.5764496 -99.12531 -800 0 -5.7118431 132.19373 
	-62.412936 165.41389 -800 0 -0.018274945 177.64354 -800 0 
	-800 0 -5.7118431 132.19373 -800 0 -1.726745 178.10353 
25.22 -1.6406886 -32.226618 -800 0 -62.463988 165.12296 -800 0 
	-800 0 -3.6066821 -100.51879 -800 0 -5.6462989 131.4818 
	-62.463988 165.12296 -800 0 -0.018292695 177.6423 -800 0 
	-800 0 -5.6462989 131.4818 -800 0 -1.753821 177.9437 
25.23 -1.6405868 -32.863849 -800 0 -62.515076 164.83282 -800 0 
	-800 0 -3.6379682 -101.92733 -800 0 -5.58556 130.78743 
	-62.515076 164.83282 -800 0 -0.018310496 177.64105 -800 0 
	-800 0 -5.58556 130.78743 -800 0 -1.7780562 177.79088 
25.24 -1.6404286 -33.500022 -800 0 -62.566192 164.5435 -800 0 
	-800 0 -3.670367 -103.35145 -800 0 -5.5294599 130.09545 
	-62.566192 164.5435 -800 0 -0.018328347 177.6398 -800 0 
	-800 0 -5.5294599 130.09545 -800 0 -1.8004824 177.65015 
25.25 -1.6402142 -34.135117 -800 0 -62.617328 164.25502 -800 0 
	-800 0 -3.7039418 -104.79167 -800 0 -5.4771923 129.39565 
	-62.617328 164.25502 -800 0 -0.018346245 177.63855 -800 0 
	-800 0 -5.4771923 129.39565 -800 0 -1.8220588 177.52297 
25.26 -1.6399439 -34.769117 -800 0 -62.668471 163.9674 -800 0 
	-800 0 -3.7387609 -106.24853 -800 0 -5.4278054 128.68229 
	-62.668471 163.9674 -800 0 -0.018364187 177.6373 -800 0 
	-800 0 -5.4278054 128.68229 -800 0 -1.8435128 177.4087 
25.27 -1.639618 -35.402004 -800 0 -62.719613 163.68066 -800 0 
	-800 0 -3.774898 -107.7226 -800 0 -5.380451 127.95271 
	-62.719613 163.68066 -800 0 -0.018382172 177.63605 -800 0 
	-800 0 -5.380451 127.95271 -800 0 -1.865333 177.3059 
25.28 -1.6392367 -36.03376 -800 0 -62.77074 163.3948 -800 0 
	-800 0 -3.8124324 -109.21445 -800 0 -5.3344641 127.2061 
	-62.77074 163.3948 -800 0 -0.018400193 177.6348 -800 0 
	-800 0 -5.3344641 127.2061 -800 0 -1.8878214 177.21294 
25.29 -1.6388003 -36.664368 -800 0 -62.82184 163.10985 -800 0 
	-800 0 -3.8514499 -110.72464 -800 0 -5.289361 126.44255 
	-62.82184 163.10985 -800 0 -0.018418246 177.63355 -800 0 
	-800 0 -5.289361 126.44255 -800 0 -1.9111527 177.12841 
25.3 -1.638309 -37.29381 -800 0 -62.872901 162.8258 -800 0 
	-800 0 -3.8920428 -112.25379 -800 0 -5.2448073 125.66258 
	-62.872901 162.8258 -800 0 -0.018436324 177.6323 -800 0 
	-800 0 -5.2448073 125.66258 -800 0 -1.9354205 177.05117 
25.31 -1.6380217 -37.919596 -800 0 -62.923296 162.55185 -800 0 
	-800 0 -3.948914 -113.78257 -800 0 -5.2092088 124.81871 
	-62.923296 162.55185 -800 0 -0.018455744 177.63112 -800 0 
	-800 0 -5.2092088 124.81871 -800 0 -1.9618728 177.01387 
25.32 -1.6376803 -38.544212 -800 0 -62.973602 162.27883 -800 0 
	-800 0 -4.008256 -115.32964 -800 0 -5.1741439 123.95947 
	-62.973602 162.27883 -800 0 -0.018475184 177.62994 -800 0 
	-800 0 -5.1741439 123.95947 -800 0 -1.9892064 176.98378 
25.33 -1.637285 -39.16764 -800 0 -63.023801 162.00673 -800 0 
	-800 0 -4.0702195 -116.89549 -800 0 -5.1395499 123.08548 
	-63.023801 162.00673 -800 0 -0.018494631 177.62877 -800 0 
	-800 0 -5.1395499 123.08548 -800 0 -2.0174038 176.96056 
25.34 -1.636836 -39.789864 -800 0 -63.073876 161.73549 -800 0 
	-800 0 -4.1349669 -118.48058 -800 0 -5.1054098 122.19724 
	-63.073876 161.73549 -800 0 -0.018514071 177.62759 -800 0 
	-800 0 -5.1054098 122.19724 -800 0 -2.0464381 176.94405 
25.35 -1.6363336 -40.410868 -800 0 -63.123807 161.46508 -800 0 
	-800 0 -4.2026725 -120.08536 -800 0 -5.0717404 121.29516 
	-63.123807 161.46508 -800 0 -0.018533486 177.62641 -800 0 
	-800 0 -5.0717404 121.29516 -800 0 -2.0762759 176.93424 
25.36 -1.6357779 -41.030635 -800 0 -63.173576 161.19542 -800 0 
	-800 0 -4.2735241 -121.71025 -800 0 -5.0385848 120.37958 
	-63.173576 161.19542 -800 0 -0.018552856 177.62524 -800 0 
	-800 0 -5.0385848 120.37958 -800 0 -2.1068794 176.9312 
25.37 -1.6351693 -41.649151 -800 0 -63.223164 160.92644 -800 0 
	-800 0 -4.3477242 -123.35565 -800 0 -5.0060071 119.45077 
	-63.223164 160.92644 -800 0 -0.018572161 177.62406 -800 0 
	-800 0 -5.0060071 119.45077 -800 0 -2.1382072 176.93512 
25.38 -1.6345079 -42.266399 -800 0 -63.272552 160.65804 -800 0 
	-800 0 -4.4254906 -125.02192 -800 0 -4.9740888 118.50896 
	-63.272552 160.65804 -800 0 -0.018591375 177.62289 -800 0 
	-800 0 -4.9740888 118.50896 -800 0 -2.1702133 176.94623 
25.39 -1.6337939 -42.882365 -800 0 -63.32172 160.39011 -800 0 
	-800 0 -4.5070579 -126.70935 -800 0 -4.9429265 117.55434 
	-63.32172 160.39011 -800 0 -0.018610471 177.62172 -800 0 
	-800 0 -4.9429265 117.55434 -800 0 -2.2028473 176.96482 
25.4 -1.6330277 -43.497033 -800 0 -63.370651 160.12251 -800 0 
	-800 0 -4.5926791 -128.41819 -800 0 -4.912631 116.5871 
	-63.370651 160.12251 -800 0 -0.018629418 177.62055 -800 0 
	-800 0 -4.912631 116.5871 -800 0 -2.236053 176.99123 
25.41 -1.6321509 -44.107972 -800 0 -63.418221 159.86451 -800 0 
	-800 0 -4.6802715 -130.23368 -800 0 -4.8764412 115.58712 
	-63.418221 159.86451 -800 0 -0.018645867 177.61947 -800 0 
	-800 0 -4.8764412 115.58712 -800 0 -2.2716561 177.01806 
25.42 -1.6312244 -44.717603 -800 0 -63.465472 159.60633 -800 0 
	-800 0 -4.7723183 -132.0755 -800 0 -4.841301 114.57418 
	-63.465472 159.60633 -800 0 -0.018662094 177.61839 -800 0 
	-800 0 -4.841301 114.57418 -800 0 -2.307806 177.05371 
25.43 -1.6302484 -45.325912 -800 0 -63.512389 159.3477 -800 0 
	-800 0 -4.8691221 -133.94386 -800 0 -4.8073636 113.54849 
	-63.512389 159.3477 -800 0 -0.018678054 177.61732 -800 0 
	-800 0 -4.8073636 113.54849 -800 0 -2.3444258 177.09863 
25.44 -1.6292229 -45.932887 -800 0 -63.558966 159.08837 -800 0 
	-800 0 -4.9710085 -135.8388 -800 0 -4.7747954 112.5103 
	-63.558966 159.08837 -800 0 -0.018693696 177.61624 -800 0 
	-800 0 -4.7747954 112.5103 -800 0 -2.3814276 177.1533 
25.45 -1.6281483 -46.538513 -800 0 -63.605196 158.82804 -800 0 
	-800 0 -5.0783279 -137.76022 -800 0 -4.7437766 111.45991 
	-63.605196 158.82804 -800 0 -0.018708969 177.61517 -800 0 
	-800 0 -4.7437766 111.45991 -800 0 -2.4187111 177.21819 
25.46 -1.6270247 -47.142778 -800 0 -63.651081 158.56641 -800 0 
	-800 0 -5.1914557 -139.70781 -800 0 -4.7145008 110.39772 
	-63.651081 158.56641 -800 0 -0.018723819 177.6141 -800 0 
	-800 0 -4.7145008 110.39772 -800 0 -2.4561626 177.29376 
25.47 -1.6258524 -47.745668 -800 0 -63.696627 158.30316 -800 0 
	-800 0 -5.310795 -141.68102 -800 0 -4.6871753 109.32425 
	-63.696627 158.30316 -800 0 -0.018738193 177.61303 -800 0 
	-800 0 -4.6871753 109.32425 -800 0 -2.4936529 177.38044 
25.48 -1.6246314 -48.34717 -800 0 -63.741848 158.03796 -800 0 
	-800 0 -5.436776 -143.679 -800 0 -4.6620212 108.24013 
	-63.741848 158.03796 -800 0 -0.018752036 177.61196 -800 0 
	-800 0 -4.6620212 108.24013 -800 0 -2.5310371 177.4786 
25.49 -1.6233622 -48.947274 -800 0 -63.786762 157.77049 -800 0 
	-800 0 -5.569857 -145.70056 -800 0 -4.6392726 107.14616 
	-63.786762 157.77049 -800 0 -0.018765298 177.6109 -800 0 
	-800 0 -4.6392726 107.14616 -800 0 -2.5681524 177.58857 
25.5 -1.6220447 -49.545966 -800 0 -63.831398 157.50041 -800 0 
	-800 0 -5.7105236 -147.74406 -800 0 -4.6191759 106.04332 
	-63.831398 157.50041 -800 0 -0.018777928 177.60983 -800 0 
	-800 0 -4.6191759 106.04332 -800 0 -2.6048186 177.71058 
25.51 -1.6206707 -50.139678 -800 0 -63.873511 157.2343 -800 0 
	-800 0 -5.8661303 -149.68656 -800 0 -4.6132197 104.95493 
	-63.873511 157.2343 -800 0 -0.018776774 177.60887 -800 0 
	-800 0 -4.6132197 104.95493 -800 0 -2.6369476 177.86604 
25.52 -1.619252 -50.731987 -800 0 -63.915467 156.9642 -800 0 
	-800 0 -6.0305817 -151.63762 -800 0 -4.6105372 103.86202 
	-63.915467 156.9642 -800 0 -0.018774913 177.60791 -800 0 
	-800 0 -4.6105372 103.86202 -800 0 -2.6679701 178.03266 
25.53 -1.6177889 -51.322882 -800 0 -63.957337 156.68987 -800 0 
	-800 0 -6.2044307 -153.59332 -800 0 -4.6113818 102.76635 
	-63.957337 156.68987 -800 0 -0.018772323 177.60694 -800 0 
	-800 0 -4.6113818 102.76635 -800 0 -2.6976634 178.21009 
25.54 -1.6162814 -51.912351 -800 0 -63.999198 156.41114 -800 0 
	-800 0 -6.3882386 -155.54883 -800 0 -4.6160075 101.67 
	-63.999198 156.41114 -800 0 -0.018768994 177.60598 -800 0 
	-800 0 -4.6160075 101.67 -800 0 -2.7257938 178.39776 
25.55 -1.6147296 -52.500386 -800 0 -64.041131 156.12794 -800 0 
	-800 0 -6.5825635 -157.49832 -800 0 -4.6246643 100.5754 
	-64.041131 156.12794 -800 0 -0.018764929 177.60501 -800 0 
	-800 0 -4.6246643 100.5754 -800 0 -2.75212 178.59487 
25.56 -1.6131339 -53.086975 -800 0 -64.083219 155.84024 -800 0 
	-800 0 -6.7879427 -159.43476 -800 0 -4.6375911 99.485393 
	-64.083219 155.84024 -800 0 -0.018760145 177.60404 -800 0 
	-800 0 -4.6375911 99.485393 -800 0 -2.776397 178.80037 
25.57 -1.6114943 -53.67211 -800 0 -64.125543 155.54813 -800 0 
	-800 0 -7.0048715 -161.34972 -800 0 -4.6550091 98.403231 
	-64.125543 155.54813 -800 0 -0.018754672 177.60306 -800 0 
	-800 0 -4.6550091 98.403231 -800 0 -2.798382 179.01291 
25.58 -1.609811 -54.255781 -800 0 -64.168186 155.25174 -800 0 
	-800 0 -7.2337687 -163.23316 -800 0 -4.6771096 97.332666 
	-64.168186 155.25174 -800 0 -0.018748553 177.60208 -800 0 
	-800 0 -4.6771096 97.332666 -800 0 -2.8178408 179.23081 
25.59 -1.6080841 -54.837978 -800 0 -64.211222 154.9513 -800 0 
	-800 0 -7.4749329 -165.0732 -800 0 -4.7040423 96.277965 
	-64.211222 154.9513 -800 0 -0.018741843 177.6011 -800 0 
	-800 0 -4.7040423 96.277965 -800 0 -2.8345563 179.45204 
25.6 -1.6063139 -55.418694 -800 0 -64.254722 154.6471 -800 0 
	-800 0 -7.7284828 -166.85589 -800 0 -4.7358989 95.243946 
	-64.254722 154.6471 -800 0 -0.018734604 177.60011 -800 0 
	-800 0 -4.7358989 95.243946 -800 0 -2.8483384 179.67425 
25.61 -1.6047165 -55.993851 -800 0 -64.296117 154.34549 -800 0 
	-800 0 -8.0119777 -168.44499 -800 0 -4.7805332 94.236881 
	-64.296117 154.34549 -800 0 -0.018693315 177.59914 -800 0 
	-800 0 -4.7805332 94.236881 -800 0 -2.85696 179.90522 
25.62 -1.6030781 -56.567553 -800 0 -64.338284 154.04186 -800 0 
	-800 0 -8.3082858 -169.93471 -800 0 -4.8300203 93.262308 
	-64.338284 154.04186 -800 0 -0.018652006 177.59817 -800 0 
	-800 0 -4.8300203 93.262308 -800 0 -2.8623475 -179.86935 
25.63 -1.6013989 -57.139793 -800 0 -64.38124 153.73682 -800 0 
	-800 0 -8.6163957 -171.30302 -800 0 -4.884138 92.326667 
	-64.38124 153.73682 -800 0 -0.018610781 177.5972 -800 0 
	-800 0 -4.884138 92.326667 -800 0 -2.8644797 -179.65285 
25.64 -1.5996791 -57.710561 -800 0 -64.424986 153.43093 -800 0 
	-800 0 -8.9345948 -172.52539 -800 0 -4.9425106 91.43687 
	-64.424986 153.43093 -800 0 -0.018569737 177.59622 -800 0 
	-800 0 -4.9425106 91.43687 -800 0 -2.863411 -179.44892 
25.65 -1.5979187 -58.27985 -800 0 -64.469516 153.12475 -800 0 
	-800 0 -9.26025 -173.57517 -800 0 -5.004577 90.600193 
	-64.469516 153.12475 -800 0 -0.018528966 177.59523 -800 0 
	-800 0 -5.004577 90.600193 -800 0 -2.8592832 -179.26137 
25.66 -1.5961179 -58.847654 -800 0 -64.514809 152.81877 -800 0 
	-800 0 -9.5895537 -174.42464 -800 0 -5.0695572 89.824109 
	-64.514809 152.81877 -800 0 -0.018488548 177.59424 -800 0 
	-800 0 -5.0695572 89.824109 -800 0 -2.8523361 -179.09411 
25.67 -1.5942768 -59.413965 -800 0 -64.56084 152.51345 -800 0 
	-800 0 -9.9172517 -175.04663 -800 0 -5.1364201 89.116067 
	-64.56084 152.51345 -800 0 -0.018448556 177.59325 -800 0 
	-800 0 -5.1364201 89.116067 -800 0 -2.8429149 -178.95104 
25.68 -1.5923956 -59.978777 -800 0 -64.607575 152.2092 -800 0 
	-800 0 -10.236401 -175.41734 -800 0 -5.2038522 88.48315 
	-64.607575 152.2092 -800 0 -0.018409054 177.59225 -800 0 
	-800 0 -5.2038522 88.48315 -800 0 -2.8314772 -178.83594 
25.69 -1.5904742 -60.542083 -800 0 -64.654978 151.90635 -800 0 
	-800 0 -10.538229 -175.52019 -800 0 -5.2702365 87.931662 
	-64.654978 151.90635 -800 0 -0.018370094 177.59125 -800 0 
	-800 0 -5.2702365 87.931662 -800 0 -2.8185946 -178.7523 
25.7 -1.5885129 -61.103877 -800 0 -64.703008 151.60521 -800 0 
	-800 0 -10.812198 -175.35096 -800 0 -5.3336419 87.466619 
	-64.703008 151.60521 -800 0 -0.018331721 177.59024 -800 0 
	-800 0 -5.3336419 87.466619 -800 0 -2.8049516 -178.70323 
25.71 -1.5868583 -61.661434 -800 0 -64.747307 151.32206 -800 0 
	-800 0 -11.051628 -175.41639 -800 0 -5.3803317 86.995711 
	-64.747307 151.32206 -800 0 -0.018252486 177.58898 -800 0 
	-800 0 -5.3803317 86.995711 -800 0 -2.7972422 -178.67321 
25.72 -1.5851635 -62.217503 -800 0 -64.791905 151.04209 -800 0 
	-800 0 -11.241302 -175.27245 -800 0 -5.4192141 86.615796 
	-64.791905 151.04209 -800 0 -0.018173431 177.58772 -800 0 
	-800 0 -5.4192141 86.615796 -800 0 -2.7904124 -178.68263 
25.73 -1.5834285 -62.772079 -800 0 -64.83676 150.76528 -800 0 
	-800 0 -11.36963 -174.97429 -800 0 -5.4474885 86.324368 
	-64.83676 150.76528 -800 0 -0.018094548 177.58646 -800 0 
	-800 0 -5.4474885 86.324368 -800 0 -2.785507 -178.73282 
25.74 -1.5816534 -63.325156 -800 0 -64.881836 150.49158 -800 0 
	-800 0 -11.427045 -174.60114 -800 0 -5.4622494 86.115031 
	-64.881836 150.49158 -800 0 -0.018015827 177.58521 -800 0 
	-800 0 -5.4622494 86.115031 -800 0 -2.7836478 -178.82407 
25.75 -1.5798383 -63.876729 -800 0 -64.9271 150.22094 -800 0 
	-800 0 -11.407503 -174.25109 -800 0 -5.4606298 85.977076 
	-64.9271 150.22094 -800 0 -0.017937259 177.58396 -800 0 
	-800 0 -5.4606298 85.977076 -800 0 -2.7860106 -178.95557 
25.76 -1.577983 -64.426794 -800 0 -64.972523 149.95329 -800 0 
	-800 0 -11.309542 -174.0311 -800 0 -5.4399766 85.89532 
	-64.972523 149.95329 -800 0 -0.017858836 177.58272 -800 0 
	-800 0 -5.4399766 85.89532 -800 0 -2.7938003 -179.12532 
25.77 -1.5760878 -64.975347 -800 0 -65.018079 149.68856 -800 0 
	-800 0 -11.136489 -174.04461 -800 0 -5.3980291 85.850328 
	-65.018079 149.68856 -800 0 -0.01778055 177.58148 -800 0 
	-800 0 -5.3980291 85.850328 -800 0 -2.8082273 -179.33009 
25.78 -1.5741525 -65.522383 -800 0 -65.063746 149.42668 -800 0 
	-800 0 -10.895839 -174.37989 -800 0 -5.3331111 85.819009 
	-65.063746 149.42668 -800 0 -0.017702397 177.58025 -800 0 
	-800 0 -5.3331111 85.819009 -800 0 -2.8304791 -179.56536 
25.79 -1.5721773 -66.067898 -800 0 -65.109503 149.16756 -800 0 
	-800 0 -10.597928 -175.10217 -800 0 -5.2442788 85.775632 
	-65.109503 149.16756 -800 0 -0.017624374 177.57902 -800 0 
	-800 0 -5.2442788 85.775632 -800 0 -2.8616956 -179.82537 
25.8 -1.5701621 -66.61189 -800 0 -65.155333 148.91114 -800 0 
	-800 0 -10.254386 -176.25084 -800 0 -5.1314197 85.693154 
	-65.155333 148.91114 -800 0 -0.017546481 177.5778 -800 0 
	-800 0 -5.1314197 85.693154 -800 0 -2.9029449 179.89694 
25.81 -1.5685809 -67.15319 -800 0 -65.195086 148.64655 -800 0 
	-800 0 -9.8950324 -177.31893 -800 0 -5.0178633 85.629954 
	-65.195086 148.64655 -800 0 -0.017477137 177.57607 -800 0 
	-800 0 -5.0178633 85.629954 -800 0 -2.9442791 179.62056 
25.82 -1.5669569 -67.692985 -800 0 -65.234779 148.38303 -800 0 
	-800 0 -9.5175667 -178.84318 -800 0 -4.8837611 85.475736 
	-65.234779 148.38303 -800 0 -0.017406299 177.57435 -800 0 
	-800 0 -4.8837611 85.475736 -800 0 -2.9964861 179.34707 
25.83 -1.56529 -68.231273 -800 0 -65.274407 148.12049 -800 0 
	-800 0 -9.1318743 179.1978 -800 0 -4.7315477 85.209436 
	-65.274407 148.12049 -800 0 -0.017333888 177.57262 -800 0 
	-800 0 -4.7315477 85.209436 -800 0 -3.059988 179.08672 
25.84 -1.5635804 -68.768052 -800 0 -65.313966 147.85887 -800 0 
	-800 0 -8.7458003 176.83482 -800 0 -4.5641799 84.814065 
	-65.313966 147.85887 -800 0 -0.017259823 177.57089 -800 0 
	-800 0 -4.5641799 84.814065 -800 0 -3.1350081 178.85051 
25.85 -1.5618279 -69.303318 -800 0 -65.353453 147.59808 -800 0 
	-800 0 -8.365275 174.10352 -800 0 -4.3849494 84.277212 
	-65.353453 147.59808 -800 0 -0.017184023 177.56916 -800 0 
	-800 0 -4.3849494 84.277212 -800 0 -3.2215477 178.65008 
25.86 -1.5600327 -69.83707 -800 0 -65.392866 147.33805 -800 0 
	-800 0 -7.9945678 171.04128 -800 0 -4.1972964 83.591158 
	-65.392866 147.33805 -800 0 -0.017106408 177.56742 -800 0 
	-800 0 -4.1972964 83.591158 -800 0 -3.3193624 178.49756 
25.87 -1.5581948 -70.369307 -800 0 -65.432202 147.07868 -800 0 
	-800 0 -7.6365938 167.68484 -800 0 -4.0046391 82.75256 
	-65.432202 147.07868 -800 0 -0.017026899 177.56567 -800 0 
	-800 0 -4.0046391 82.75256 -800 0 -3.4279419 178.40535 
25.88 -1.5563141 -70.900027 -800 0 -65.47146 146.81988 -800 0 
	-800 0 -7.2931899 164.06947 -800 0 -3.8102431 81.762057 
	-65.47146 146.81988 -800 0 -0.016945423 177.56392 -800 0 
	-800 0 -3.8102431 81.762057 -800 0 -3.5464845 178.38593 
25.89 -1.5543908 -71.429228 -800 0 -65.51064 146.56155 -800 0 
	-800 0 -6.9653656 160.22819 -800 0 -3.6171188 80.62362 
	-65.51064 146.56155 -800 0 -0.016861917 177.56216 -800 0 
	-800 0 -3.6171188 80.62362 -800 0 -3.6738777 178.45154 
25.9 -1.5524249 -71.95691 -800 0 -65.549743 146.30359 -800 0 
	-800 0 -6.6535094 156.19163 -800 0 -3.4279575 79.343873 
	-65.549743 146.30359 -800 0 -0.016776329 177.56039 -800 0 
	-800 0 -3.4279575 79.343873 -800 0 -3.8086831 178.61389 
25.91 -1.5509597 -72.483099 -800 0 -65.589424 146.02082 -800 0 
	-800 0 -6.4174228 151.83291 -800 0 -3.262866 77.826701 
	-65.589424 146.02082 -800 0 -0.016768805 177.55843 -800 0 
	-800 0 -3.262866 77.826701 -800 0 -3.9441035 178.96421 
25.92 -1.5494474 -73.007783 -800 0 -65.629217 145.73839 -800 0 
	-800 0 -6.1970011 147.30418 -800 0 -3.1074286 76.185579 
	-65.629217 145.73839 -800 0 -0.0167622 177.55646 -800 0 
	-800 0 -3.1074286 76.185579 -800 0 -4.0811426 179.43785 
25.93 -1.5478882 -73.530963 -800 0 -65.669124 145.45633 -800 0 
	-800 0 -5.9915213 142.63124 -800 0 -2.9633841 74.432702 
	-65.669124 145.45633 -800 0 -0.016756593 177.55448 -800 0 
	-800 0 -2.9633841 74.432702 -800 0 -4.216909 -179.95948 
25.94 -1.546282 -74.052639 -800 0 -65.709149 145.17467 -800 0 
	-800 0 -5.8000587 137.8384 -800 0 -2.8321102 72.58083 
	-65.709149 145.17467 -800 0 -0.01675205 177.55249 -800 0 
	-800 0 -2.8321102 72.58083 -800 0 -4.3482472 -179.22547 
25.95 -1.544629 -74.572809 -800 0 -65.749293 144.89345 -800 0 
	-800 0 -5.6215584 132.94865 -800 0 -2.714649 70.642897 
	-65.749293 144.89345 -800 0 -0.016748627 177.5505 -800 0 
	-800 0 -2.714649 70.642897 -800 0 -4.4718393 -178.36172 
25.96 -1.5429292 -75.091476 -800 0 -65.789557 144.6127 -800 0 
	-800 0 -5.454886 127.98377 -800 0 -2.6117345 68.631718 
	-65.789557 144.6127 -800 0 -0.016746362 177.54849 -800 0 
	-800 0 -2.6117345 68.631718 -800 0 -4.5843419 -177.3742 
25.97 -1.5411827 -75.608638 -800 0 -65.829943 144.33245 -800 0 
	-800 0 -5.2988966 122.96429 -800 0 -2.5238327 66.559709 
	-65.829943 144.33245 -800 0 -0.016745284 177.54648 -800 0 
	-800 0 -2.5238327 66.559709 -800 0 -4.6825422 -176.27342 
25.98 -1.5393897 -76.124298 -800 0 -65.87045 144.05273 -800 0 
	-800 0 -5.152444 117.90964 -800 0 -2.4511631 64.438743 
	-65.87045 144.05273 -800 0 -0.016745406 177.54446 -800 0 
	-800 0 -2.4511631 64.438743 -800 0 -4.763543 -175.0743 
25.99 -1.5375501 -76.638455 -800 0 -65.911078 143.77357 -800 0 
	-800 0 -5.0144174 112.83806 -800 0 -2.3937323 62.279977 
	-65.911078 143.77357 -800 0 -0.01674673 177.54244 -800 0 
	-800 0 -2.3937323 62.279977 -800 0 -4.8249372 -173.79566 
26 -1.5356642 -77.151112 -800 0 -65.951827 143.49499 -800 0 
	-800 0 -4.883763 107.76651 -800 0 -2.3513626 60.093702 
	-65.951827 143.49499 -800 0 -0.016749243 177.54041 -800 0 
	-800 0 -2.3513626 60.093702 -800 0 -4.8649606 -172.45922 
26.01 -1.5341077 -77.662151 -800 0 -65.995446 143.21973 -800 0 
	-800 0 -4.7134296 102.7093 -800 0 -2.3048428 57.861834 
	-65.995446 143.21973 -800 0 -0.016800191 177.53869 -800 0 
	-800 0 -2.3048428 57.861834 -800 0 -4.8960872 -171.05547 
26.02 -1.5325021 -78.171705 -800 0 -66.039137 142.9451 -800 0 
	-800 0 -4.5490255 97.69316 -800 0 -2.272218 55.613306 
	-66.039137 142.9451 -800 0 -0.016851408 177.53697 -800 0 
	-800 0 -2.272218 55.613306 -800 0 -4.9043537 -169.62517 
26.03 -1.5308473 -78.679774 -800 0 -66.082903 142.6711 -800 0 
	-800 0 -4.3896342 92.725933 -800 0 -2.2528143 53.352307 
	-66.082903 142.6711 -800 0 -0.016902874 177.53526 -800 0 
	-800 0 -2.2528143 53.352307 -800 0 -4.8898961 -168.1879 
26.04 -1.5291436 -79.18636 -800 0 -66.126744 142.3977 -800 0 
	-800 0 -4.2349881 87.806816 -800 0 -2.2465122 51.077445 
	-66.126744 142.3977 -800 0 -0.016954573 177.53354 -800 0 
	-800 0 -2.2465122 51.077445 -800 0 -4.852508 -166.75744 
26.05 -1.5273911 -79.691466 -800 0 -66.170661 142.1249 -800 0 
	-800 0 -4.0876589 82.933842 -800 0 -2.255237 48.789926 
	-66.170661 142.1249 -800 0 -0.017006487 177.53182 -800 0 
	-800 0 -2.255237 48.789926 -800 0 -4.7901096 -165.35518 
26.06 -1.52559 -80.195094 -800 0 -66.214657 141.85269 -800 0 
	-800 0 -3.9511617 78.135499 -800 0 -2.2807179 46.515414 
	-66.214657 141.85269 -800 0 -0.017058602 177.5301 -800 0 
	-800 0 -2.2807179 46.515414 -800 0 -4.7029002 -164.0319 
26.07 -1.5237404 -80.697246 -800 0 -66.258733 141.58106 -800 0 
	-800 0 -3.8231584 73.447732 -800 0 -2.3199411 44.278836 
	-66.258733 141.58106 -800 0 -0.017110904 177.52838 -800 0 
	-800 0 -2.3199411 44.278836 -800 0 -4.5976369 -162.82191 
26.08 -1.5218426 -81.197925 -800 0 -66.302891 141.30998 -800 0 
	-800 0 -3.7000795 68.873076 -800 0 -2.3697572 42.078576 
	-66.302891 141.30998 -800 0 -0.017163381 177.52667 -800 0 
	-800 0 -2.3697572 42.078576 -800 0 -4.4798447 -161.72132 
26.09 -1.5198967 -81.697135 -800 0 -66.347134 141.03947 -800 0 
	-800 0 -3.5810346 64.404834 -800 0 -2.4292362 39.909307 
	-66.347134 141.03947 -800 0 -0.017216021 177.52495 -800 0 
	-800 0 -2.4292362 39.909307 -800 0 -4.352005 -160.72429 
26.1 -1.517903 -82.194879 -800 0 -66.391464 140.76951 -800 0 
	-800 0 -3.4661797 60.040772 -800 0 -2.4980824 37.770502 
	-66.391464 140.76951 -800 0 -0.017268814 177.52323 -800 0 
	-800 0 -2.4980824 37.770502 -800 0 -4.2160354 -159.83018 
26.11 -1.5160497 -82.690273 -800 0 -66.43682 140.51013 -800 0 
	-800 0 -3.4263969 55.92628 -800 0 -2.6079275 35.831945 
	-66.43682 140.51013 -800 0 -0.017325483 177.52179 -800 0 
	-800 0 -2.6079275 35.831945 -800 0 -4.0626731 -159.21027 
26.12 -1.5141481 -83.184221 -800 0 -66.482281 140.2512 -800 0 
	-800 0 -3.3880007 51.908551 -800 0 -2.7245894 33.935854 
	-66.482281 140.2512 -800 0 -0.01738216 177.52035 -800 0 
	-800 0 -2.7245894 33.935854 -800 0 -3.9092467 -158.68672 
26.13 -1.5121984 -83.676726 -800 0 -66.52785 139.99272 -800 0 
	-800 0 -3.3508864 47.98876 -800 0 -2.8475214 32.083247 
	-66.52785 139.99272 -800 0 -0.017438848 177.5189 -800 0 
	-800 0 -2.8475214 32.083247 -800 0 -3.7571277 -158.25295 
26.14 -1.5102008 -84.16779 -800 0 -66.573531 139.73471 -800 0 
	-800 0 -3.3149085 44.167421 -800 0 -2.976156 30.274651 
	-66.573531 139.73471 -800 0 -0.017495552 177.51746 -800 0 
	-800 0 -2.976156 30.274651 -800 0 -3.6074499 -157.90171 
26.15 -1.5081557 -84.657419 -800 0 -66.619328 139.47716 -800 0 
	-800 0 -3.2799238 40.444406 -800 0 -3.109941 28.510186 
	-66.619328 139.47716 -800 0 -0.017552276 177.51601 -800 0 
	-800 0 -3.109941 28.510186 -800 0 -3.4611075 -157.6255 
26.16 -1.5060633 -85.145617 -800 0 -66.665243 139.22009 -800 0 
	-800 0 -3.2458057 36.81902 -800 0 -3.2483552 26.789639 
	-66.665243 139.22009 -800 0 -0.017609022 177.51456 -800 0 
	-800 0 -3.2483552 26.789639 -800 0 -3.3187766 -157.4169 
26.17 -1.5039239 -85.632386 -800 0 -66.711281 138.96351 -800 0 
	-800 0 -3.21246 33.290096 -800 0 -3.3909182 25.11257 
	-66.711281 138.96351 -800 0 -0.017665796 177.51312 -800 0 
	-800 0 -3.3909182 25.11257 -800 0 -3.1809457 -157.26883 
26.18 -1.5017379 -86.117733 -800 0 -66.757446 138.70742 -800 0 
	-800 0 -3.179814 29.856063 -800 0 -3.5371896 23.478336 
	-66.757446 138.70742 -800 0 -0.0177226 177.51166 -800 0 
	-800 0 -3.5371896 23.478336 -800 0 -3.0479463 -157.17463 
26.19 -1.4995056 -86.60166 -800 0 -66.803742 138.45186 -800 0 
	-800 0 -3.1478196 26.515013 -800 0 -3.6867709 21.886152 
	-66.803742 138.45186 -800 0 -0.017779437 177.51021 -800 0 
	-800 0 -3.6867709 21.886152 -800 0 -2.9199815 -157.12814 
26.2 -1.4972274 -87.084173 -800 0 -66.850171 138.19682 -800 0 
	-800 0 -3.1164507 23.264769 -800 0 -3.8393045 20.335134 
	-66.850171 138.19682 -800 0 -0.017836312 177.50876 -800 0 
	-800 0 -3.8393045 20.335134 -800 0 -2.7971519 -157.12372 
26.21 -1.4950682 -87.56398 -800 0 -66.89612 137.95049 -800 0 
	-800 0 -3.1034266 20.065232 -800 0 -4.0007111 18.875446 
	-66.89612 137.95049 -800 0 -0.017885236 177.50747 -800 0 
	-800 0 -4.0007111 18.875446 -800 0 -2.6821318 -157.18735 
26.22 -1.4928631 -88.0424 -800 0 -66.94222 137.70481 -800 0 
	-800 0 -3.0892936 16.95056 -800 0 -4.1639407 17.45465 
	-66.94222 137.70481 -800 0 -0.017934239 177.50618 -800 0 
	-800 0 -4.1639407 17.45465 -800 0 -2.5723647 -157.27957 
26.23 -1.4906126 -88.519438 -800 0 -66.988475 137.4598 -800 0 
	-800 0 -3.0741524 13.918303 -800 0 -4.3287781 16.071475 
	-66.988475 137.4598 -800 0 -0.017983322 177.50489 -800 0 
	-800 0 -4.3287781 16.071475 -800 0 -2.4676961 -157.39657 
26.24 -1.4883172 -88.995098 -800 0 -67.034889 137.21548 -800 0 
	-800 0 -3.0581218 10.965906 -800 0 -4.4950439 14.724707 
	-67.034889 137.21548 -800 0 -0.018032484 177.50359 -800 0 
	-800 0 -4.4950439 14.724707 -800 0 -2.3679493 -157.53503 
26.25 -1.4859772 -89.469386 -800 0 -67.081465 136.97189 -800 0 
	-800 0 -3.0413353 8.0907306 -800 0 -4.6625931 13.413203 
	-67.081465 136.97189 -800 0 -0.018081724 177.5023 -800 0 
	-800 0 -4.6625931 13.413203 -800 0 -2.2729336 -157.69204 
26.26 -1.4835931 -89.942305 -800 0 -67.128207 136.72905 -800 0 
	-800 0 -3.0239371 5.2900656 -800 0 -4.8313124 12.135893 
	-67.128207 136.72905 -800 0 -0.018131044 177.501 -800 0 
	-800 0 -4.8313124 12.135893 -800 0 -2.1824509 -157.8651 
26.27 -1.4811654 -90.413861 -800 0 -67.175118 136.48699 -800 0 
	-800 0 -3.0060866 2.56116 -800 0 -5.0011204 10.891827 
	-67.175118 136.48699 -800 0 -0.018180441 177.4997 -800 0 
	-800 0 -5.0011204 10.891827 -800 0 -2.0963017 -158.05203 
26.28 -1.4786945 -90.884059 -800 0 -67.2222 136.24575 -800 0 
	-800 0 -2.9879503 -0.098782453 -800 0 -5.1719653 9.6801511 
	-67.2222 136.24575 -800 0 -0.018229916 177.4984 -800 0 
	-800 0 -5.1719653 9.6801511 -800 0 -2.0142882 -158.25097 
26.29 -1.4761809 -91.352902 -800 0 -67.269457 136.00536 -800 0 
	-800 0 -2.9697046 -2.6925857 -800 0 -5.3438251 8.5001387 
	-67.269457 136.00536 -800 0 -0.018279468 177.4971 -800 0 
	-800 0 -5.3438251 8.5001387 -800 0 -1.9362171 -158.46035 
26.3 -1.4736251 -91.820397 -800 0 -67.316891 135.76585 -800 0 
	-800 0 -2.9515368 -5.2230923 -800 0 -5.5167076 7.3512096 
	-67.316891 135.76585 -800 0 -0.018329098 177.4958 -800 0 
	-800 0 -5.5167076 7.3512096 -800 0 -1.8619028 -158.67882 
26.31 -1.4711691 -92.284941 -800 0 -67.362792 135.5311 -800 0 
	-800 0 -2.9160383 -7.623022 -800 0 -5.6798534 6.1763594 
	-67.362792 135.5311 -800 0 -0.018369762 177.49459 -800 0 
	-800 0 -5.6798534 6.1763594 -800 0 -1.7898786 -158.87486 
26.32 -1.4686714 -92.74817 -800 0 -67.408873 135.29745 -800 0 
	-800 0 -2.8827831 -9.9674221 -800 0 -5.8446858 5.0328376 
	-67.408873 135.29745 -800 0 -0.018410531 177.49338 -800 0 
	-800 0 -5.8446858 5.0328376 -800 0 -1.7211753 -159.081 
26.33 -1.4661328 -93.210089 -800 0 -67.455137 135.06495 -800 0 
	-800 0 -2.8519025 -12.25924 -800 0 -6.0112825 3.9208213 
	-67.455137 135.06495 -800 0 -0.018451401 177.49217 -800 0 
	-800 0 -6.0112825 3.9208213 -800 0 -1.6556749 -159.2963 
26.34 -1.4635536 -93.670702 -800 0 -67.501585 134.83365 -800 0 
	-800 0 -2.8235584 -14.501376 -800 0 -6.1797551 2.8407693 
	-67.501585 134.83365 -800 0 -0.01849237 177.49096 -800 0 
	-800 0 -6.1797551 2.8407693 -800 0 -1.5932695 -159.52002 
26.35 -1.4609345 -94.130013 -800 0 -67.548218 134.60358 -800 0 
	-800 0 -2.7979509 -16.696683 -800 0 -6.3502509 1.7934892 
	-67.548218 134.60358 -800 0 -0.018533437 177.48975 -800 0 
	-800 0 -6.3502509 1.7934892 -800 0 -1.5338634 -159.75159 
26.36 -1.458276 -94.588027 -800 0 -67.595037 134.37479 -800 0 
	-800 0 -2.7753258 -18.847971 -800 0 -6.5229554 0.78021564 
	-67.595037 134.37479 -800 0 -0.018574598 177.48854 -800 0 
	-800 0 -6.5229554 0.78021564 -800 0 -1.4773759 -159.99058 
26.37 -1.4555787 -95.044746 -800 0 -67.642043 134.14733 -800 0 
	-800 0 -2.7559911 -20.957974 -800 0 -6.6980926 -0.19724331 
	-67.642043 134.14733 -800 0 -0.018615851 177.48733 -800 0 
	-800 0 -6.6980926 -0.19724331 -800 0 -1.4237461 -160.23675 
26.38 -1.4528432 -95.500176 -800 0 -67.689234 133.92125 -800 0 
	-800 0 -2.7403272 -23.029354 -800 0 -6.8759265 -1.1363894 
	-67.689234 133.92125 -800 0 -0.018657195 177.48611 -800 0 
	-800 0 -6.8759265 -1.1363894 -800 0 -1.3729356 -160.49001 
26.39 -1.45007 -95.954321 -800 0 -67.736611 133.69659 -800 0 
	-800 0 -2.7288083 -25.064658 -800 0 -7.0567594 -2.0338195 
	-67.736611 133.69659 -800 0 -0.018698625 177.48489 -800 0 
	-800 0 -7.0567594 -2.0338195 -800 0 -1.3249346 -160.7504 
26.4 -1.4472598 -96.407182 -800 0 -67.784172 133.4734 -800 0 
	-800 0 -2.7220286 -27.066253 -800 0 -7.2409258 -2.8849541 
	-67.784172 133.4734 -800 0 -0.018740141 177.48367 -800 0 
	-800 0 -7.2409258 -2.8849541 -800 0 -1.279769 -161.01816 
26.41 -1.4445121 -96.857264 -800 0 -67.829478 133.25148 -800 0 
	-800 0 -2.768307 -29.188338 -800 0 -7.4684176 -3.4774607 
	-67.829478 133.25148 -800 0 -0.01877337 177.48252 -800 0 
	-800 0 -7.4684176 -3.4774607 -800 0 -1.2399534 -161.38171 
26.42 -1.441728 -97.306098 -800 0 -67.874956 133.03129 -800 0 
	-800 0 -2.8164677 -31.276475 -800 0 -7.6980877 -4.0156178 
	-67.874956 133.03129 -800 0 -0.018806693 177.48136 -800 0 
	-800 0 -7.6980877 -4.0156178 -800 0 -1.2030736 -161.74491 
26.43 -1.4389083 -97.753689 -800 0 -67.920605 132.81289 -800 0 
	-800 0 -2.8678456 -33.332392 -800 0 -7.9303246 -4.4896072 
	-67.920605 132.81289 -800 0 -0.018840105 177.4802 -800 0 
	-800 0 -7.9303246 -4.4896072 -800 0 -1.1692453 -162.10896 
26.44 -1.4360534 -98.200037 -800 0 -67.966423 132.59633 -800 0 
	-800 0 -2.9240738 -35.356895 -800 0 -8.1653738 -4.8862597 
	-67.966423 132.59633 -800 0 -0.018873605 177.47904 -800 0 
	-800 0 -8.1653738 -4.8862597 -800 0 -1.1386819 -162.47507 
26.45 -1.4331642 -98.645147 -800 0 -68.012404 132.38164 -800 0 
	-800 0 -2.9871721 -37.349169 -800 0 -8.4031798 -5.1880506 
	-68.012404 132.38164 -800 0 -0.01890719 177.47787 -800 0 
	-800 0 -8.4031798 -5.1880506 -800 0 -1.1117241 -162.84438 
26.46 -1.4302413 -99.089021 -800 0 -68.058546 132.16888 -800 0 
	-800 0 -3.0596513 -39.305643 -800 0 -8.6431116 -5.3719463 
	-68.058546 132.16888 -800 0 -0.018940856 177.47671 -800 0 
	-800 0 -8.6431116 -5.3719463 -800 0 -1.0888776 -163.21781 
26.47 -1.4272852 -99.53166 -800 0 -68.104844 131.95809 -800 0 
	-800 0 -3.1446199 -41.218017 -800 0 -8.8834838 -5.4082842 
	-68.104844 131.95809 -800 0 -0.018974602 177.47555 -800 0 
	-800 0 -8.8834838 -5.4082842 -800 0 -1.0708656 -163.5956 
26.48 -1.4242967 -99.973068 -800 0 -68.151294 131.74931 -800 0 
	-800 0 -3.2458376 -43.070178 -800 0 -9.1207911 -5.2604519 
	-68.151294 131.74931 -800 0 -0.019008424 177.47438 -800 0 
	-800 0 -9.1207911 -5.2604519 -800 0 -1.0586809 -163.97681 
26.49 -1.4212766 -100.41325 -800 0 -68.197889 131.54258 -800 0 
	-800 0 -3.3676089 -44.833212 -800 0 -9.3485158 -4.8868086 
	-68.197889 131.54258 -800 0 -0.01904232 177.47321 -800 0 
	-800 0 -9.3485158 -4.8868086 -800 0 -1.0536313 -164.35811 
26.5 -1.4182254 -100.85219 -800 0 -68.244625 131.33793 -800 0 
	-800 0 -3.5142467 -46.458049 -800 0 -9.5555107 -4.2480952 
	-68.244625 131.33793 -800 0 -0.019076288 177.47204 -800 0 
	-800 0 -9.5555107 -4.2480952 -800 0 -1.0573259 -164.73206 
26.51 -1.415184 -101.28965 -800 0 -68.288776 131.13268 -800 0 
	-800 0 -3.6904372 -47.760009 -800 0 -9.7058657 -3.3063038 
	-68.288776 131.13268 -800 0 -0.019101936 177.47092 -800 0 
	-800 0 -9.7058657 -3.3063038 -800 0 -1.073929 -165.06416 
26.52 -1.412112 -101.72591 -800 0 -68.333041 130.92974 -800 0 
	-800 0 -3.8945338 -48.731121 -800 0 -9.794811 -2.1096052 
	-68.333041 130.92974 -800 0 -0.019127656 177.46979 -800 0 
	-800 0 -9.794811 -2.1096052 -800 0 -1.1026166 -165.35314 
26.53 -1.4090102 -102.16096 -800 0 -68.377414 130.72916 -800 0 
	-800 0 -4.1139777 -49.220351 -800 0 -9.796064 -0.79284958 
	-68.377414 130.72916 -800 0 -0.019153448 177.46865 -800 0 
	-800 0 -9.796064 -0.79284958 -800 0 -1.143372 -165.56228 
26.54 -1.4058793 -102.59481 -800 0 -68.421887 130.53095 -800 0 
	-800 0 -4.3181519 -49.092686 -800 0 -9.6930103 0.38091594 
	-68.421887 130.53095 -800 0 -0.019179311 177.46752 -800 0 
	-800 0 -9.6930103 0.38091594 -800 0 -1.1929225 -165.64659 
26.55 -1.4027203 -103.02746 -800 0 -68.466454 130.33514 -800 0 
	-800 0 -4.4573346 -48.338985 -800 0 -9.4950229 1.0697655 
	-68.466454 130.33514 -800 0 -0.019205242 177.46639 -800 0 
	-800 0 -9.4950229 1.0697655 -800 0 -1.2431761 -165.56864 
26.56 -1.3995341 -103.45891 -800 0 -68.511107 130.14174 -800 0 
	-800 0 -4.4803829 -47.194995 -800 0 -9.2444032 1.0002556 
	-68.511107 130.14174 -800 0 -0.019231243 177.46525 -800 0 
	-800 0 -9.2444032 1.0002556 -800 0 -1.2820048 -165.32553 
26.57 -1.3963214 -103.88916 -800 0 -68.555839 129.95075 -800 0 
	-800 0 -4.3686259 -46.109729 -800 0 -9.0012519 0.11681531 
	-68.555839 129.95075 -800 0 -0.019257311 177.46412 -800 0 
	-800 0 -9.0012519 0.11681531 -800 0 -1.2979943 -164.96731 
26.58 -1.3930833 -104.31821 -800 0 -68.600642 129.76219 -800 0 
	-800 0 -4.1525549 -45.503761 -800 0 -8.8154586 -1.4050897 
	-68.600642 129.76219 -800 0 -0.019283447 177.46298 -800 0 
	-800 0 -8.8154586 -1.4050897 -800 0 -1.2865 -164.58125 
26.59 -1.3898209 -104.74607 -800 0 -68.645511 129.57607 -800 0 
	-800 0 -3.8890793 -45.549981 -800 0 -8.7095068 -3.2834825 
	-68.645511 129.57607 -800 0 -0.019309651 177.46185 -800 0 
	-800 0 -8.7095068 -3.2834825 -800 0 -1.251364 -164.24901 
26.6 -1.3865351 -105.17272 -800 0 -68.690437 129.39236 -800 0 
	-800 0 -3.6272443 -46.180752 -800 0 -8.6810312 -5.265159 
	-68.690437 129.39236 -800 0 -0.019335921 177.46071 -800 0 
	-800 0 -8.6810312 -5.265159 -800 0 -1.2011723 -164.01516 
26.61 -1.3832153 -105.5999 -800 0 -68.732696 129.20621 -800 0 
	-800 0 -3.3486137 -47.27693 -800 0 -8.7065286 -7.465711 
	-68.732696 129.20621 -800 0 -0.019352216 177.45959 -800 0 
	-800 0 -8.7065286 -7.465711 -800 0 -1.1379663 -163.84182 
26.62 -1.3798727 -106.02589 -800 0 -68.774976 129.02265 -800 0 
	-800 0 -3.1101044 -48.637882 -800 0 -8.7787356 -9.5267262 
	-68.774976 129.02265 -800 0 -0.019368577 177.45848 -800 0 
	-800 0 -8.7787356 -9.5267262 -800 0 -1.0737583 -163.76527 
26.63 -1.3765085 -106.45071 -800 0 -68.817272 128.84166 -800 0 
	-800 0 -2.9103348 -50.134188 -800 0 -8.882412 -11.419835 
	-68.817272 128.84166 -800 0 -0.019385006 177.45736 -800 0 
	-800 0 -8.882412 -11.419835 -800 0 -1.01224 -163.76386 
26.64 -1.373124 -106.87434 -800 0 -68.859575 128.66322 -800 0 
	-800 0 -2.7438096 -51.683013 -800 0 -9.0061082 -13.147492 
	-68.859575 128.66322 -800 0 -0.019401504 177.45625 -800 0 
	-800 0 -9.0061082 -13.147492 -800 0 -0.95508443 -163.81675 
26.65 -1.3697204 -107.2968 -800 0 -68.901883 128.48732 -800 0 
	-800 0 -2.6043216 -53.235754 -800 0 -9.1418527 -14.725635 
	-68.901883 128.48732 -800 0 -0.019418073 177.45513 -800 0 
	-800 0 -9.1418527 -14.725635 -800 0 -0.90276578 -163.90719 
26.66 -1.3662991 -107.71809 -800 0 -68.944189 128.31393 -800 0 
	-800 0 -2.4863116 -54.765814 -800 0 -9.2843294 -16.174232 
	-68.944189 128.31393 -800 0 -0.019434714 177.45401 -800 0 
	-800 0 -9.2843294 -16.174232 -800 0 -0.85514631 -164.02281 
26.67 -1.3628616 -108.13821 -800 0 -68.986488 128.143 -800 0 
	-800 0 -2.3852355 -56.259797 -800 0 -9.4300864 -17.512807 
	-68.986488 128.143 -800 0 -0.019451429 177.45289 -800 0 
	-800 0 -9.4300864 -17.512807 -800 0 -0.81182488 -164.15483 
26.68 -1.3594091 -108.55717 -800 0 -69.028778 127.97452 -800 0 
	-800 0 -2.2975262 -57.711895 -800 0 -9.576923 -18.758706 
	-69.028778 127.97452 -800 0 -0.019468219 177.45177 -800 0 
	-800 0 -9.576923 -18.758706 -800 0 -0.77231964 -164.29719 
26.69 -1.3559431 -108.97498 -800 0 -69.071054 127.80845 -800 0 
	-800 0 -2.2204334 -59.120516 -800 0 -9.7234612 -19.926632 
	-69.071054 127.80845 -800 0 -0.019485087 177.45065 -800 0 
	-800 0 -9.7234612 -19.926632 -800 0 -0.736156 -164.44572 
26.7 -1.3524648 -109.39164 -800 0 -69.113313 127.64473 -800 0 
	-800 0 -2.151849 -60.486326 -800 0 -9.8688565 -21.028765 
	-69.113313 127.64473 -800 0 -0.019502033 177.44953 -800 0 
	-800 0 -9.8688565 -21.028765 -800 0 -0.70290322 -164.5976 
26.71 -1.349053 -109.8111 -800 0 -69.154882 127.44814 -800 0 
	-800 0 -2.1102394 -61.782647 -800 0 -10.01878 -21.906101 
	-69.154882 127.44814 -800 0 -0.019525915 177.44801 -800 0 
	-800 0 -10.01878 -21.906101 -800 0 -0.67611368 -164.77193 
26.72 -1.3456285 -110.22942 -800 0 -69.196392 127.25366 -800 0 
	-800 0 -2.0730029 -63.040269 -800 0 -10.166226 -22.739298 
	-69.196392 127.25366 -800 0 -0.019550394 177.44649 -800 0 
	-800 0 -10.166226 -22.739298 -800 0 -0.6513803 -164.94428 
26.73 -1.3421924 -110.64664 -800 0 -69.237843 127.06121 -800 0 
	-800 0 -2.039282 -64.261931 -800 0 -10.311126 -23.534985 
	-69.237843 127.06121 -800 0 -0.019575482 177.44497 -800 0 
	-800 0 -10.311126 -23.534985 -800 0 -0.62842834 -165.11404 
26.74 -1.3387457 -111.06275 -800 0 -69.279235 126.87076 -800 0 
	-800 0 -2.0084158 -65.45024 -800 0 -10.453488 -24.298556 
	-69.279235 126.87076 -800 0 -0.01960119 177.44345 -800 0 
	-800 0 -10.453488 -24.298556 -800 0 -0.60702923 -165.28087 
26.75 -1.3352892 -111.47777 -800 0 -69.320569 126.68222 -800 0 
	-800 0 -1.9798906 -66.607613 -800 0 -10.593365 -25.034417 
	-69.320569 126.68222 -800 0 -0.019627527 177.44192 -800 0 
	-800 0 -10.593365 -25.034417 -800 0 -0.58699247 -165.44455 
26.76 -1.3318234 -111.89172 -800 0 -69.361847 126.49555 -800 0 
	-800 0 -1.9533039 -67.736252 -800 0 -10.730838 -25.746194 
	-69.361847 126.49555 -800 0 -0.019654504 177.4404 -800 0 
	-800 0 -10.730838 -25.746194 -800 0 -0.56815865 -165.60502 
26.77 -1.328349 -112.30461 -800 0 -69.403069 126.31067 -800 0 
	-800 0 -1.9283385 -68.838151 -800 0 -10.865999 -26.436879 
	-69.403069 126.31067 -800 0 -0.019682132 177.43887 -800 0 
	-800 0 -10.865999 -26.436879 -800 0 -0.55039383 -165.76224 
26.78 -1.3248659 -112.71645 -800 0 -69.444239 126.12754 -800 0 
	-800 0 -1.9047415 -69.915104 -800 0 -10.998946 -27.108967 
	-69.444239 126.12754 -800 0 -0.01971042 177.43735 -800 0 
	-800 0 -10.998946 -27.108967 -800 0 -0.53358473 -165.91625 
26.79 -1.3213743 -113.12727 -800 0 -69.485358 125.94609 -800 0 
	-800 0 -1.8823105 -70.968723 -800 0 -11.129779 -27.764544 
	-69.485358 125.94609 -800 0 -0.019739378 177.43582 -800 0 
	-800 0 -11.129779 -27.764544 -800 0 -0.51763503 -166.06712 
26.8 -1.3178737 -113.53706 -800 0 -69.52643 125.76627 -800 0 
	-800 0 -1.8608819 -72.000461 -800 0 -11.258593 -28.405371 
	-69.52643 125.76627 -800 0 -0.019769015 177.43429 -800 0 
	-800 0 -11.258593 -28.405371 -800 0 -0.50246233 -166.21493 
26.81 -1.314931 -113.95125 -800 0 -69.564407 125.5789 -800 0 
	-800 0 -1.8509034 -72.995322 -800 0 -11.389001 -28.926496 
	-69.564407 125.5789 -800 0 -0.019771955 177.43274 -800 0 
	-800 0 -11.389001 -28.926496 -800 0 -0.48994175 -166.36846 
26.82 -1.3119729 -114.36445 -800 0 -69.602302 125.39313 -800 0 
	-800 0 -1.8411919 -73.971496 -800 0 -11.517455 -29.437429 
	-69.602302 125.39313 -800 0 -0.019775535 177.4312 -800 0 
	-800 0 -11.517455 -29.437429 -800 0 -0.47797912 -166.51855 
26.83 -1.3089987 -114.77668 -800 0 -69.64012 125.20889 -800 0 
	-800 0 -1.8316865 -74.930019 -800 0 -11.644049 -29.939206 
	-69.64012 125.20889 -800 0 -0.019779768 177.42966 -800 0 
	-800 0 -11.644049 -29.939206 -800 0 -0.46652516 -166.66535 
26.84 -1.3060072 -115.18795 -800 0 -69.677868 125.02614 -800 0 
	-800 0 -1.8223391 -75.87183 -800 0 -11.768868 -30.432717 
	-69.677868 125.02614 -800 0 -0.019784665 177.42811 -800 0 
	-800 0 -11.768868 -30.432717 -800 0 -0.45553702 -166.80899 
26.85 -1.3029974 -115.59828 -800 0 -69.715551 124.84484 -800 0 
	-800 0 -1.813112 -76.797779 -800 0 -11.891994 -30.91873 
	-69.715551 124.84484 -800 0 -0.01979024 177.42657 -800 0 
	-800 0 -11.891994 -30.91873 -800 0 -0.44497729 -166.94962 
26.86 -1.2999682 -116.00766 -800 0 -69.753176 124.66495 -800 0 
	-800 0 -1.8039752 -77.708638 -800 0 -12.013501 -31.397909 
	-69.753176 124.66495 -800 0 -0.019796505 177.42503 -800 0 
	-800 0 -12.013501 -31.397909 -800 0 -0.43481308 -167.08736 
26.87 -1.2969182 -116.41611 -800 0 -69.790749 124.48642 -800 0 
	-800 0 -1.7949054 -78.605112 -800 0 -12.133457 -31.870835 
	-69.790749 124.48642 -800 0 -0.019803472 177.42349 -800 0 
	-800 0 -12.133457 -31.870835 -800 0 -0.42501535 -167.22232 
26.88 -1.2938462 -116.82364 -800 0 -69.828278 124.30924 -800 0 
	-800 0 -1.7858844 -79.487847 -800 0 -12.251926 -32.338014 
	-69.828278 124.30924 -800 0 -0.019811156 177.42195 -800 0 
	-800 0 -12.251926 -32.338014 -800 0 -0.41555836 -167.35463 
26.89 -1.2907511 -117.23023 -800 0 -69.865768 124.13338 -800 0 
	-800 0 -1.7768982 -80.357436 -800 0 -12.368965 -32.799893 
	-69.865768 124.13338 -800 0 -0.01981957 177.4204 -800 0 
	-800 0 -12.368965 -32.799893 -800 0 -0.4064191 -167.48439 
26.9 -1.2876319 -117.63591 -800 0 -69.903228 123.9588 -800 0 
	-800 0 -1.767936 -81.214426 -800 0 -12.484629 -33.256866 
	-69.903228 123.9588 -800 0 -0.019828726 177.41886 -800 0 
	-800 0 -12.484629 -33.256866 -800 0 -0.39757699 -167.6117 
26.91 -1.2857288 -118.04267 -800 0 -69.945892 123.8421 -800 0 
	-800 0 -1.7608057 -82.065181 -800 0 -12.601154 -33.676562 
	-69.945892 123.8421 -800 0 -0.019677698 177.41845 -800 0 
	-800 0 -12.601154 -33.676562 -800 0 -0.390102 -167.74117 
26.92 -1.2837942 -118.44854 -800 0 -69.988705 123.72533 -800 0 
	-800 0 -1.7535636 -82.904072 -800 0 -12.716321 -34.092968 
	-69.988705 123.72533 -800 0 -0.019529939 177.41804 -800 0 
	-800 0 -12.716321 -34.092968 -800 0 -0.38284462 -167.86816 
26.93 -1.2818273 -118.85353 -800 0 -70.03168 123.60871 -800 0 
	-800 0 -1.7462136 -83.731542 -800 0 -12.830177 -34.506328 
	-70.03168 123.60871 -800 0 -0.019385458 177.41762 -800 0 
	-800 0 -12.830177 -34.506328 -800 0 -0.37579192 -167.99276 
26.94 -1.2798277 -119.25763 -800 0 -70.074823 123.49243 -800 0 
	-800 0 -1.7387604 -84.548004 -800 0 -12.942763 -34.916859 
	-70.074823 123.49243 -800 0 -0.019244295 177.41721 -800 0 
	-800 0 -12.942763 -34.916859 -800 0 -0.36893218 -168.11508 
26.95 -1.277795 -119.66084 -800 0 -70.118133 123.37665 -800 0 
	-800 0 -1.7312092 -85.353844 -800 0 -13.054121 -35.324752 
	-70.118133 123.37665 -800 0 -0.019106515 177.41681 -800 0 
	-800 0 -13.054121 -35.324752 -800 0 -0.36225476 -168.23519 
26.96 -1.2757287 -120.06315 -800 0 -70.161606 123.26151 -800 0 
	-800 0 -1.7235659 -86.149423 -800 0 -13.164287 -35.73018 
	-70.161606 123.26151 -800 0 -0.018972185 177.4164 -800 0 
	-800 0 -13.164287 -35.73018 -800 0 -0.35574997 -168.35318 
26.97 -1.273629 -120.46457 -800 0 -70.205232 123.14712 -800 0 
	-800 0 -1.7158363 -86.93508 -800 0 -13.273296 -36.133297 
	-70.205232 123.14712 -800 0 -0.018841374 177.41599 -800 0 
	-800 0 -13.273296 -36.133297 -800 0 -0.34940894 -168.46912 
26.98 -1.2714958 -120.8651 -800 0 -70.248998 123.03356 -800 0 
	-800 0 -1.7080266 -87.711136 -800 0 -13.381181 -36.534243 
	-70.248998 123.03356 -800 0 -0.018714142 177.41558 -800 0 
	-800 0 -13.381181 -36.534243 -800 0 -0.34322354 -168.5831 
26.99 -1.2693292 -121.26473 -800 0 -70.292886 122.92086 -800 0 
	-800 0 -1.7001431 -88.47789 -800 0 -13.487973 -36.933142 
	-70.292886 122.92086 -800 0 -0.018590538 177.41518 -800 0 
	-800 0 -13.487973 -36.933142 -800 0 -0.33718628 -168.69516 
27 -1.2671296 -121.66345 -800 0 -70.336874 122.80905 -800 0 
	-800 0 -1.692192 -89.235629 -800 0 -13.593699 -37.330107 
	-70.336874 122.80905 -800 0 -0.018470597 177.41478 -800 0 
	-800 0 -13.593699 -37.330107 -800 0 -0.33129024 -168.80539 
27.01 -1.2658708 -122.05684 -800 0 -70.368368 122.63777 -800 0 
	-800 0 -1.6826398 -89.961898 -800 0 -13.692198 -37.716648 
	-70.368368 122.63777 -800 0 -0.018539696 177.41278 -800 0 
	-800 0 -13.692198 -37.716648 -800 0 -0.32589871 -168.91011 
27.02 -1.2645777 -122.44936 -800 0 -70.399624 122.46775 -800 0 
	-800 0 -1.6730832 -90.680419 -800 0 -13.789788 -38.101369 
	-70.399624 122.46775 -800 0 -0.018608833 177.41077 -800 0 
	-800 0 -13.789788 -38.101369 -800 0 -0.32062478 -169.01327 
27.03 -1.2632507 -122.84103 -800 0 -70.430661 122.29921 -800 0 
	-800 0 -1.6635256 -91.391408 -800 0 -13.886491 -38.484351 
	-70.430661 122.29921 -800 0 -0.01867795 177.40876 -800 0 
	-800 0 -13.886491 -38.484351 -800 0 -0.31546352 -169.11491 
27.04 -1.2618905 -123.23182 -800 0 -70.461498 122.13237 -800 0 
	-800 0 -1.6539707 -92.095067 -800 0 -13.982329 -38.865666 
	-70.461498 122.13237 -800 0 -0.018746995 177.40674 -800 0 
	-800 0 -13.982329 -38.865666 -800 0 -0.31041032 -169.21508 
27.05 -1.2604978 -123.62174 -800 0 -70.49215 121.96743 -800 0 
	-800 0 -1.6444218 -92.791591 -800 0 -14.077321 -39.245382 
	-70.49215 121.96743 -800 0 -0.01881592 177.40472 -800 0 
	-800 0 -14.077321 -39.245382 -800 0 -0.30546087 -169.31383 
27.06 -1.2590731 -124.0108 -800 0 -70.522629 121.80465 -800 0 
	-800 0 -1.6348825 -93.481164 -800 0 -14.171485 -39.623558 
	-70.522629 121.80465 -800 0 -0.018884682 177.40269 -800 0 
	-800 0 -14.171485 -39.623558 -800 0 -0.30061114 -169.4112 
27.07 -1.2576173 -124.39898 -800 0 -70.552949 121.64426 -800 0 
	-800 0 -1.6253559 -94.163961 -800 0 -14.264839 -40.00025 
	-70.552949 121.64426 -800 0 -0.018953245 177.40066 -800 0 
	-800 0 -14.264839 -40.00025 -800 0 -0.29585735 -169.50723 
27.08 -1.2561312 -124.78629 -800 0 -70.58312 121.4865 -800 0 
	-800 0 -1.6158453 -94.840152 -800 0 -14.3574 -40.37551 
	-70.58312 121.4865 -800 0 -0.019021573 177.39862 -800 0 
	-800 0 -14.3574 -40.37551 -800 0 -0.29119594 -169.60196 
27.09 -1.2546156 -125.17272 -800 0 -70.613151 121.33163 -800 0 
	-800 0 -1.6063538 -95.509895 -800 0 -14.449183 -40.749385 
	-70.613151 121.33163 -800 0 -0.019089633 177.39658 -800 0 
	-800 0 -14.449183 -40.749385 -800 0 -0.28662357 -169.69542 
27.1 -1.2530713 -125.55828 -800 0 -70.643053 121.17992 -800 0 
	-800 0 -1.5968843 -96.173346 -800 0 -14.540203 -41.121918 
	-70.643053 121.17992 -800 0 -0.019157395 177.39453 -800 0 
	-800 0 -14.540203 -41.121918 -800 0 -0.28213706 -169.78766 
27.11 -1.2515161 -125.93844 -800 0 -70.67633 121.07013 -800 0 
	-800 0 -1.5934935 -96.820786 -800 0 -14.629803 -41.420335 
	-70.67633 121.07013 -800 0 -0.019188499 177.39333 -800 0 
	-800 0 -14.629803 -41.420335 -800 0 -0.27867071 -169.88013 
27.12 -1.2499338 -126.31775 -800 0 -70.709435 120.96229 -800 0 
	-800 0 -1.5899705 -97.462775 -800 0 -14.71871 -41.718227 
	-70.709435 120.96229 -800 0 -0.019219636 177.39214 -800 0 
	-800 0 -14.71871 -41.718227 -800 0 -0.27525281 -169.97142 
27.13 -1.2483251 -126.69623 -800 0 -70.742362 120.85632 -800 0 
	-800 0 -1.5863222 -98.099424 -800 0 -14.806934 -42.015616 
	-70.742362 120.85632 -800 0 -0.01925079 177.39094 -800 0 
	-800 0 -14.806934 -42.015616 -800 0 -0.2718818 -170.06157 
27.14 -1.2466908 -127.07386 -800 0 -70.775108 120.75217 -800 0 
	-800 0 -1.5825554 -98.730837 -800 0 -14.89449 -42.312522 
	-70.775108 120.75217 -800 0 -0.019281946 177.38975 -800 0 
	-800 0 -14.89449 -42.312522 -800 0 -0.26855619 -170.1506 
27.15 -1.2450317 -127.45064 -800 0 -70.807668 120.64977 -800 0 
	-800 0 -1.5786763 -99.357117 -800 0 -14.981389 -42.608964 
	-70.807668 120.64977 -800 0 -0.019313084 177.38855 -800 0 
	-800 0 -14.981389 -42.608964 -800 0 -0.26527459 -170.23854 
27.16 -1.2433484 -127.82657 -800 0 -70.84004 120.54902 -800 0 
	-800 0 -1.5746912 -99.978361 -800 0 -15.067641 -42.904957 
	-70.84004 120.54902 -800 0 -0.019344186 177.38736 -800 0 
	-800 0 -15.067641 -42.904957 -800 0 -0.26203565 -170.32543 
27.17 -1.2416417 -128.20165 -800 0 -70.872221 120.44986 -800 0 
	-800 0 -1.570606 -100.59466 -800 0 -15.153257 -43.200518 
	-70.872221 120.44986 -800 0 -0.01937523 177.38617 -800 0 
	-800 0 -15.153257 -43.200518 -800 0 -0.25883808 -170.41128 
27.18 -1.2399125 -128.57588 -800 0 -70.90421 120.35217 -800 0 
	-800 0 -1.5664261 -101.20612 -800 0 -15.238248 -43.49566 
	-70.90421 120.35217 -800 0 -0.019406195 177.38498 -800 0 
	-800 0 -15.238248 -43.49566 -800 0 -0.25568069 -170.49613 
27.19 -1.2381612 -128.94925 -800 0 -70.936007 120.25587 -800 0 
	-800 0 -1.562157 -101.81281 -800 0 -15.322624 -43.790398 
	-70.936007 120.25587 -800 0 -0.019437057 177.38379 -800 0 
	-800 0 -15.322624 -43.790398 -800 0 -0.25256228 -170.58 
27.2 -1.2363887 -129.32177 -800 0 -70.967615 120.16085 -800 0 
	-800 0 -1.5578037 -102.41483 -800 0 -15.406393 -44.084743 
	-70.967615 120.16085 -800 0 -0.019467793 177.38261 -800 0 
	-800 0 -15.406393 -44.084743 -800 0 -0.24948175 -170.66291 
27.21 -1.2342967 -129.69319 -800 0 -70.993523 120.03873 -800 0 
	-800 0 -1.5581451 -103.01964 -800 0 -15.499256 -44.314399 
	-70.993523 120.03873 -800 0 -0.019488786 177.38115 -800 0 
	-800 0 -15.499256 -44.314399 -800 0 -0.24724289 -170.75257 
27.22 -1.2321842 -130.06378 -800 0 -71.019323 119.91925 -800 0 
	-800 0 -1.5582517 -103.61962 -800 0 -15.591429 -44.544996 
	-71.019323 119.91925 -800 0 -0.019509816 177.3797 -800 0 
	-800 0 -15.591429 -44.544996 -800 0 -0.24500893 -170.84108 
27.23 -1.2300517 -130.43354 -800 0 -71.045012 119.80244 -800 0 
	-800 0 -1.5581342 -104.21487 -800 0 -15.68292 -44.776519 
	-71.045012 119.80244 -800 0 -0.019530881 177.37825 -800 0 
	-800 0 -15.68292 -44.776519 -800 0 -0.24278025 -170.92848 
27.24 -1.2278997 -130.80247 -800 0 -71.070586 119.6883 -800 0 
	-800 0 -1.5578027 -104.80547 -800 0 -15.77374 -45.008951 
	-71.070586 119.6883 -800 0 -0.019551978 177.37679 -800 0 
	-800 0 -15.77374 -45.008951 -800 0 -0.24055717 -171.01479 
27.25 -1.2257287 -131.17057 -800 0 -71.096042 119.57684 -800 0 
	-800 0 -1.5572671 -105.39148 -800 0 -15.863898 -45.242276 
	-71.096042 119.57684 -800 0 -0.019573104 177.37534 -800 0 
	-800 0 -15.863898 -45.242276 -800 0 -0.23834 -171.10005 
27.26 -1.2235391 -131.53783 -800 0 -71.121377 119.46806 -800 0 
	-800 0 -1.5565365 -105.973 -800 0 -15.953402 -45.476481 
	-71.121377 119.46806 -800 0 -0.019594255 177.37388 -800 0 
	-800 0 -15.953402 -45.476481 -800 0 -0.23612903 -171.18427 
27.27 -1.2213315 -131.90425 -800 0 -71.146587 119.36196 -800 0 
	-800 0 -1.5556199 -106.55009 -800 0 -16.042261 -45.711549 
	-71.146587 119.36196 -800 0 -0.019615426 177.37243 -800 0 
	-800 0 -16.042261 -45.711549 -800 0 -0.23392451 -171.26748 
27.28 -1.2191061 -132.26983 -800 0 -71.17167 119.25853 -800 0 
	-800 0 -1.5545256 -107.12283 -800 0 -16.130483 -45.947467 
	-71.17167 119.25853 -800 0 -0.019636612 177.37097 -800 0 
	-800 0 -16.130483 -45.947467 -800 0 -0.23172666 -171.34971 
27.29 -1.2168634 -132.63456 -800 0 -71.196621 119.15777 -800 0 
	-800 0 -1.5532616 -107.69129 -800 0 -16.218077 -46.184221 
	-71.196621 119.15777 -800 0 -0.019657807 177.36951 -800 0 
	-800 0 -16.218077 -46.184221 -800 0 -0.22953571 -171.43099 
27.3 -1.2146037 -132.99844 -800 0 -71.221438 119.05965 -800 0 
	-800 0 -1.5518356 -108.25555 -800 0 -16.305048 -46.421798 
	-71.221438 119.05965 -800 0 -0.019679004 177.36806 -800 0 
	-800 0 -16.305048 -46.421798 -800 0 -0.22735182 -171.51133 
27.31 -1.2122856 -133.36412 -800 0 -71.242283 118.9326 -800 0 
	-800 0 -1.5439812 -108.82516 -800 0 -16.386902 -46.743254 
	-71.242283 118.9326 -800 0 -0.019717925 177.3664 -800 0 
	-800 0 -16.386902 -46.743254 -800 0 -0.22454086 -171.58677 
27.32 -1.2099491 -133.72899 -800 0 -71.262744 118.80876 -800 0 
	-800 0 -1.5361324 -109.39051 -800 0 -16.468184 -47.064525 
	-71.262744 118.80876 -800 0 -0.019756884 177.36475 -800 0 
	-800 0 -16.468184 -47.064525 -800 0 -0.22175997 -171.66146 
27.33 -1.2075943 -134.09303 -800 0 -71.282804 118.68805 -800 0 
	-800 0 -1.528291 -109.95169 -800 0 -16.548898 -47.385619 
	-71.282804 118.68805 -800 0 -0.019795868 177.3631 -800 0 
	-800 0 -16.548898 -47.385619 -800 0 -0.21900839 -171.73541 
27.34 -1.2052211 -134.45624 -800 0 -71.302445 118.5704 -800 0 
	-800 0 -1.5204588 -110.50876 -800 0 -16.629051 -47.706538 
	-71.302445 118.5704 -800 0 -0.019834862 177.36144 -800 0 
	-800 0 -16.629051 -47.706538 -800 0 -0.21628536 -171.80863 
27.35 -1.2028295 -134.81862 -800 0 -71.321651 118.45573 -800 0 
	-800 0 -1.5126374 -111.0618 -800 0 -16.708648 -48.02729 
	-71.321651 118.45573 -800 0 -0.01987385 177.35979 -800 0 
	-800 0 -16.708648 -48.02729 -800 0 -0.21359015 -171.88114 
27.36 -1.2004195 -135.18016 -800 0 -71.340405 118.34393 -800 0 
	-800 0 -1.5048279 -111.61089 -800 0 -16.787694 -48.347878 
	-71.340405 118.34393 -800 0 -0.019912816 177.35813 -800 0 
	-800 0 -16.787694 -48.347878 -800 0 -0.21092205 -171.95295 
27.37 -1.1979907 -135.54084 -800 0 -71.358691 118.23487 -800 0 
	-800 0 -1.4970315 -112.15609 -800 0 -16.866194 -48.668308 
	-71.358691 118.23487 -800 0 -0.019951741 177.35647 -800 0 
	-800 0 -16.866194 -48.668308 -800 0 -0.20828035 -172.02409 
27.38 -1.1955429 -135.90067 -800 0 -71.376496 118.12842 -800 0 
	-800 0 -1.4892487 -112.69748 -800 0 -16.944154 -48.988586 
	-71.376496 118.12842 -800 0 -0.019990603 177.35482 -800 0 
	-800 0 -16.944154 -48.988586 -800 0 -0.20566437 -172.09457 
27.39 -1.1930755 -136.25962 -800 0 -71.393805 118.02442 -800 0 
	-800 0 -1.4814802 -113.23512 -800 0 -17.021578 -49.308717 
	-71.393805 118.02442 -800 0 -0.020029381 177.35316 -800 0 
	-800 0 -17.021578 -49.308717 -800 0 -0.20307343 -172.16439 
27.4 -1.1905881 -136.6177 -800 0 -71.410607 117.92268 -800 0 
	-800 0 -1.4737261 -113.76909 -800 0 -17.098471 -49.628707 
	-71.410607 117.92268 -800 0 -0.020068053 177.3515 -800 0 
	-800 0 -17.098471 -49.628707 -800 0 -0.20050687 -172.23359 
27.41 -1.1883829 -136.97858 -800 0 -71.422724 117.78598 -800 0 
	-800 0 -1.4705361 -114.28996 -800 0 -17.177649 -49.855571 
	-71.422724 117.78598 -800 0 -0.02012652 177.34976 -800 0 
	-800 0 -17.177649 -49.855571 -800 0 -0.19878471 -172.30571 
27.42 -1.1861535 -137.33863 -800 0 -71.433989 117.65065 -800 0 
	-800 0 -1.4672304 -114.80749 -800 0 -17.256302 -50.083349 
	-71.433989 117.65065 -800 0 -0.020184868 177.34801 -800 0 
	-800 0 -17.256302 -50.083349 -800 0 -0.19706071 -172.37712 
27.43 -1.1838987 -137.69784 -800 0 -71.444388 117.51627 -800 0 
	-800 0 -1.4638121 -115.32175 -800 0 -17.334434 -50.312027 
	-71.444388 117.51627 -800 0 -0.020243051 177.34627 -800 0 
	-800 0 -17.334434 -50.312027 -800 0 -0.1953352 -172.44784 
27.44 -1.181617 -138.0562 -800 0 -71.453912 117.38242 -800 0 
	-800 0 -1.4602834 -115.83279 -800 0 -17.41205 -50.541592 
	-71.453912 117.38242 -800 0 -0.020301022 177.34452 -800 0 
	-800 0 -17.41205 -50.541592 -800 0 -0.19360845 -172.51789 
27.45 -1.1793067 -138.41369 -800 0 -71.462558 117.24862 -800 0 
	-800 0 -1.4566458 -116.34068 -800 0 -17.489154 -50.772033 
	-71.462558 117.24862 -800 0 -0.020358728 177.34278 -800 0 
	-800 0 -17.489154 -50.772033 -800 0 -0.19188073 -172.58728 
27.46 -1.1769685 -138.77028 -800 0 -71.470332 117.11438 -800 0 
	-800 0 -1.4529001 -116.84547 -800 0 -17.565749 -51.003337 
	-71.470332 117.11438 -800 0 -0.020416116 177.34103 -800 0 
	-800 0 -17.565749 -51.003337 -800 0 -0.19015228 -172.65602 
27.47 -1.1745959 -139.12598 -800 0 -71.477248 116.97918 -800 0 
	-800 0 -1.4490459 -117.34722 -800 0 -17.641841 -51.235494 
	-71.477248 116.97918 -800 0 -0.020473132 177.33929 -800 0 
	-800 0 -17.641841 -51.235494 -800 0 -0.18842331 -172.72413 
27.48 -1.1721852 -139.48078 -800 0 -71.48333 116.84249 -800 0 
	-800 0 -1.4450816 -117.84599 -800 0 -17.717433 -51.468495 
	-71.48333 116.84249 -800 0 -0.020529717 177.33755 -800 0 
	-800 0 -17.717433 -51.468495 -800 0 -0.18669402 -172.79162 
27.49 -1.1697333 -139.83471 -800 0 -71.48861 116.70377 -800 0 
	-800 0 -1.4410044 -118.34184 -800 0 -17.792529 -51.702331 
	-71.48861 116.70377 -800 0 -0.020585816 177.33581 -800 0 
	-800 0 -17.792529 -51.702331 -800 0 -0.18496458 -172.85851 
27.5 -1.1672415 -140.18777 -800 0 -71.493134 116.56247 -800 0 
	-800 0 -1.4368099 -118.83483 -800 0 -17.867133 -51.936993 
	-71.493134 116.56247 -800 0 -0.02064137 177.33407 -800 0 
	-800 0 -17.867133 -51.936993 -800 0 -0.18323513 -172.9248 
27.51 -1.1653029 -140.54397 -800 0 -71.49361 116.37673 -800 0 
	-800 0 -1.426639 -119.33167 -800 0 -17.934389 -52.291824 
	-71.49361 116.37673 -800 0 -0.020703424 177.33239 -800 0 
	-800 0 -17.934389 -52.291824 -800 0 -0.18103329 -172.98359 
27.52 -1.1633134 -140.89933 -800 0 -71.493296 116.18609 -800 0 
	-800 0 -1.4164872 -119.82576 -800 0 -18.001257 -52.646467 
	-71.493296 116.18609 -800 0 -0.020764742 177.33072 -800 0 
	-800 0 -18.001257 -52.646467 -800 0 -0.17884886 -173.04201 
27.53 -1.1612686 -141.25387 -800 0 -71.492291 115.98998 -800 0 
	-800 0 -1.4063387 -120.31712 -800 0 -18.067741 -53.000936 
	-71.492291 115.98998 -800 0 -0.020825262 177.32904 -800 0 
	-800 0 -18.067741 -53.000936 -800 0 -0.17668123 -173.10009 
27.54 -1.1591638 -141.60757 -800 0 -71.490707 115.78792 -800 0 
	-800 0 -1.3961749 -120.80579 -800 0 -18.133843 -53.355249 
	-71.490707 115.78792 -800 0 -0.02088493 177.32737 -800 0 
	-800 0 -18.133843 -53.355249 -800 0 -0.17452982 -173.15781 
27.55 -1.1569945 -141.96044 -800 0 -71.48867 115.57948 -800 0 
	-800 0 -1.3859737 -121.29174 -800 0 -18.199565 -53.709422 
	-71.48867 115.57948 -800 0 -0.020943702 177.32569 -800 0 
	-800 0 -18.199565 -53.709422 -800 0 -0.17239406 -173.2152 
27.56 -1.1547509 -142.31242 -800 0 -71.486316 115.36436 -800 0 
	-800 0 -1.3757102 -121.77494 -800 0 -18.26491 -54.063469 
	-71.486316 115.36436 -800 0 -0.02100154 177.32401 -800 0 
	-800 0 -18.26491 -54.063469 -800 0 -0.17027337 -173.27226 
27.57 -1.1524337 -142.66359 -800 0 -71.483789 115.14233 -800 0 
	-800 0 -1.365356 -122.2553 -800 0 -18.329879 -54.417411 
	-71.483789 115.14233 -800 0 -0.021058421 177.32233 -800 0 
	-800 0 -18.329879 -54.417411 -800 0 -0.16816719 -173.32899 
27.58 -1.1500397 -143.01397 -800 0 -71.48124 114.91331 -800 0 
	-800 0 -1.3548819 -122.73263 -800 0 -18.394477 -54.771265 
	-71.48124 114.91331 -800 0 -0.021114333 177.32065 -800 0 
	-800 0 -18.394477 -54.771265 -800 0 -0.16607496 -173.3854 
27.59 -1.1475659 -143.36358 -800 0 -71.478822 114.67733 -800 0 
	-800 0 -1.3442604 -123.20669 -800 0 -18.458704 -55.125049 
	-71.478822 114.67733 -800 0 -0.021169278 177.31896 -800 0 
	-800 0 -18.458704 -55.125049 -800 0 -0.16399615 -173.44149 
27.6 -1.145009 -143.71241 -800 0 -71.476687 114.43455 -800 0 
	-800 0 -1.3334722 -123.6771 -800 0 -18.522565 -55.478781 
	-71.476687 114.43455 -800 0 -0.02122327 177.31727 -800 0 
	-800 0 -18.522565 -55.478781 -800 0 -0.16193022 -173.49728 
27.61 -1.1431276 -144.06456 -800 0 -71.473647 114.15369 -800 0 
	-800 0 -1.3293487 -124.14489 -800 0 -18.590598 -55.704163 
	-71.473647 114.15369 -800 0 -0.021267524 177.31576 -800 0 
	-800 0 -18.590598 -55.704163 -800 0 -0.16075119 -173.55794 
27.62 -1.1411442 -144.41611 -800 0 -71.47106 113.86724 -800 0 
	-800 0 -1.3249311 -124.60802 -800 0 -18.658269 -55.930411 
	-71.47106 113.86724 -800 0 -0.021310902 177.31424 -800 0 
	-800 0 -18.658269 -55.930411 -800 0 -0.15956343 -173.6182 
27.63 -1.1390566 -144.76702 -800 0 -71.469038 113.57571 -800 0 
	-800 0 -1.3202908 -125.06584 -800 0 -18.725582 -56.157529 
	-71.469038 113.57571 -800 0 -0.02135346 177.31272 -800 0 
	-800 0 -18.725582 -56.157529 -800 0 -0.15836705 -173.67807 
27.64 -1.1368632 -145.11717 -800 0 -71.46767 113.27966 -800 0 
	-800 0 -1.3155494 -125.51782 -800 0 -18.792539 -56.385517 
	-71.46767 113.27966 -800 0 -0.021395263 177.31119 -800 0 
	-800 0 -18.792539 -56.385517 -800 0 -0.15716219 -173.73757 
27.65 -1.1347397 -145.4658 -800 0 -71.466996 112.97944 -800 0 
	-800 0 -1.3108734 -125.96376 -800 0 -18.859142 -56.614372 
	-71.466996 112.97944 -800 0 -0.021436385 177.30965 -800 0 
	-800 0 -18.859142 -56.614372 -800 0 -0.15594894 -173.79671 
27.66 -1.132161 -145.81854 -800 0 -71.467161 112.67328 -800 0 
	-800 0 -1.3064509 -126.4039 -800 0 -18.925396 -56.844088 
	-71.467161 112.67328 -800 0 -0.021476906 177.30811 -800 0 
	-800 0 -18.925396 -56.844088 -800 0 -0.15472741 -173.85549 
27.67 -1.1303773 -146.17063 -800 0 -71.469263 112.36652 -800 0 
	-800 0 -1.3024472 -126.83905 -800 0 -18.991303 -57.074663 
	-71.469263 112.36652 -800 0 -0.021516912 177.30655 -800 0 
	-800 0 -18.991303 -57.074663 -800 0 -0.15349771 -173.91392 
27.68 -1.1280918 -146.51844 -800 0 -71.47175 112.06243 -800 0 
	-800 0 -1.2989653 -127.27041 -800 0 -19.056868 -57.306087 
	-71.47175 112.06243 -800 0 -0.02155649 177.305 -800 0 
	-800 0 -19.056868 -57.306087 -800 0 -0.15225993 -173.972 
27.69 -1.1255708 -146.86773 -800 0 -71.475082 111.75634 -800 0 
	-800 0 -1.2960211 -127.69934 -800 0 -19.122097 -57.538358 
	-71.475082 111.75634 -800 0 -0.02159573 177.30343 -800 0 
	-800 0 -19.122097 -57.538358 -800 0 -0.15101417 -174.02975 
27.7 -1.1223781 -147.21671 -800 0 -71.479466 111.44994 -800 0 
	-800 0 -1.293551 -128.12702 -800 0 -19.186994 -57.771475 
	-71.479466 111.44994 -800 0 -0.021634722 177.30186 -800 0 
	-800 0 -19.186994 -57.771475 -800 0 -0.14976053 -174.08718 
27.71 -1.1206589 -147.56806 -800 0 -71.48438 111.12009 -800 0 
	-800 0 -1.2907885 -128.54059 -800 0 -19.250577 -57.986217 
	-71.48438 111.12009 -800 0 -0.02166316 177.30041 -800 0 
	-800 0 -19.250577 -57.986217 -800 0 -0.14865151 -174.1455 
27.72 -1.1188444 -147.91919 -800 0 -71.490126 110.79233 -800 0 
	-800 0 -1.2882649 -128.95432 -800 0 -19.313894 -58.201896 
	-71.490126 110.79233 -800 0 -0.021691521 177.29897 -800 0 
	-800 0 -19.313894 -58.201896 -800 0 -0.14752975 -174.20352 
27.73 -1.1169333 -148.27018 -800 0 -71.496681 110.46733 -800 0 
	-800 0 -1.2858622 -129.36827 -800 0 -19.376951 -58.418515 
	-71.496681 110.46733 -800 0 -0.021719875 177.29751 -800 0 
	-800 0 -19.376951 -58.418515 -800 0 -0.14639545 -174.26125 
27.74 -1.1149303 -148.62109 -800 0 -71.504015 110.14571 -800 0 
	-800 0 -1.2834867 -129.7823 -800 0 -19.439751 -58.636076 
	-71.504015 110.14571 -800 0 -0.021748282 177.29605 -800 0 
	-800 0 -19.439751 -58.636076 -800 0 -0.1452488 -174.31869 
27.75 -1.1128412 -148.97195 -800 0 -71.512092 109.82803 -800 0 
	-800 0 -1.2810722 -130.19615 -800 0 -19.502301 -58.854582 
	-71.512092 109.82803 -800 0 -0.0217768 177.29458 -800 0 
	-800 0 -19.502301 -58.854582 -800 0 -0.14409 -174.37586 
27.76 -1.1106733 -149.32276 -800 0 -71.520872 109.51477 -800 0 
	-800 0 -1.2785765 -130.60953 -800 0 -19.564605 -59.074033 
	-71.520872 109.51477 -800 0 -0.02180548 177.29311 -800 0 
	-800 0 -19.564605 -59.074033 -800 0 -0.14291926 -174.43275 
27.77 -1.1084232 -149.67351 -800 0 -71.530312 109.20639 -800 0 
	-800 0 -1.2759756 -131.02217 -800 0 -19.626668 -59.294427 
	-71.530312 109.20639 -800 0 -0.021834367 177.29163 -800 0 
	-800 0 -19.626668 -59.294427 -800 0 -0.1417368 -174.48938 
27.78 -1.1060916 -150.02417 -800 0 -71.540366 108.90329 -800 0 
	-800 0 -1.2732587 -131.43385 -800 0 -19.688495 -59.51576 
	-71.540366 108.90329 -800 0 -0.0218635 177.29014 -800 0 
	-800 0 -19.688495 -59.51576 -800 0 -0.14054284 -174.54575 
27.79 -1.103679 -150.37475 -800 0 -71.550986 108.60582 -800 0 
	-800 0 -1.2704234 -131.84435 -800 0 -19.750092 -59.738027 
	-71.550986 108.60582 -800 0 -0.021892912 177.28865 -800 0 
	-800 0 -19.750092 -59.738027 -800 0 -0.13933761 -174.60187 
27.8 -1.1011853 -150.72524 -800 0 -71.562125 108.31428 -800 0 
	-800 0 -1.2674725 -132.25353 -800 0 -19.811464 -59.961221 
	-71.562125 108.31428 -800 0 -0.021922633 177.28715 -800 0 
	-800 0 -19.811464 -59.961221 -800 0 -0.13812135 -174.65775 
27.81 -1.0998162 -151.07813 -800 0 -71.573632 108.00156 -800 0 
	-800 0 -1.2632682 -132.66004 -800 0 -19.870643 -60.220738 
	-71.573632 108.00156 -800 0 -0.021946601 177.2857 -800 0 
	-800 0 -19.870643 -60.220738 -800 0 -0.13691148 -174.71118 
27.82 -1.0983794 -151.4311 -800 0 -71.585347 107.69504 -800 0 
	-800 0 -1.2589898 -133.06503 -800 0 -19.929588 -60.480882 
	-71.585347 107.69504 -800 0 -0.021970916 177.28425 -800 0 
	-800 0 -19.929588 -60.480882 -800 0 -0.1356976 -174.7644 
27.83 -1.0968736 -151.78415 -800 0 -71.597224 107.39484 -800 0 
	-800 0 -1.2546445 -133.46843 -800 0 -19.988306 -60.74164 
	-71.597224 107.39484 -800 0 -0.021995588 177.28279 -800 0 
	-800 0 -19.988306 -60.74164 -800 0 -0.13447992 -174.81742 
27.84 -1.0952971 -152.13727 -800 0 -71.60922 107.10111 -800 0 
	-800 0 -1.2502395 -133.8702 -800 0 -20.0468 -61.002998 
	-71.60922 107.10111 -800 0 -0.02202062 177.28132 -800 0 
	-800 0 -20.0468 -61.002998 -800 0 -0.13325865 -174.87025 
27.85 -1.0936479 -152.49048 -800 0 -71.621292 106.81391 -800 0 
	-800 0 -1.2457819 -134.2703 -800 0 -20.105078 -61.264939 
	-71.621292 106.81391 -800 0 -0.022046016 177.27986 -800 0 
	-800 0 -20.105078 -61.264939 -800 0 -0.13203404 -174.92289 
27.86 -1.0919237 -152.84378 -800 0 -71.633403 106.53334 -800 0 
	-800 0 -1.2412782 -134.66874 -800 0 -20.163145 -61.527447 
	-71.633403 106.53334 -800 0 -0.022071775 177.27839 -800 0 
	-800 0 -20.163145 -61.527447 -800 0 -0.13080634 -174.97535 
27.87 -1.0901218 -153.19716 -800 0 -71.645517 106.25945 -800 0 
	-800 0 -1.2367345 -135.06548 -800 0 -20.221006 -61.790501 
	-71.645517 106.25945 -800 0 -0.022097896 177.27692 -800 0 
	-800 0 -20.221006 -61.790501 -800 0 -0.12957582 -175.02764 
27.88 -1.0882395 -153.55064 -800 0 -71.6576 105.99228 -800 0 
	-800 0 -1.2321562 -135.46054 -800 0 -20.278666 -62.05408 
	-71.6576 105.99228 -800 0 -0.022124374 177.27544 -800 0 
	-800 0 -20.278666 -62.05408 -800 0 -0.12834278 -175.07976 
27.89 -1.0862735 -153.90422 -800 0 -71.66962 105.73185 -800 0 
	-800 0 -1.2275485 -135.85391 -800 0 -20.33613 -62.318161 
	-71.66962 105.73185 -800 0 -0.022151205 177.27396 -800 0 
	-800 0 -20.33613 -62.318161 -800 0 -0.12710751 -175.13171 
27.9 -1.0842204 -154.25791 -800 0 -71.681551 105.47819 -800 0 
	-800 0 -1.2229159 -136.24561 -800 0 -20.393404 -62.582718 
	-71.681551 105.47819 -800 0 -0.022178381 177.27248 -800 0 
	-800 0 -20.393404 -62.582718 -800 0 -0.12587034 -175.18351 
27.91 -1.0834406 -154.61314 -800 0 -71.692675 105.20319 -800 0 
	-800 0 -1.2203571 -136.63343 -800 0 -20.447061 -62.79216 
	-71.692675 105.20319 -800 0 -0.022197843 177.27104 -800 0 
	-800 0 -20.447061 -62.79216 -800 0 -0.12491908 -175.23556 
27.92 -1.0825903 -154.96868 -800 0 -71.703455 104.93422 -800 0 
	-800 0 -1.2177416 -137.01967 -800 0 -20.500517 -63.002271 
	-71.703455 104.93422 -800 0 -0.0222176 177.2696 -800 0 
	-800 0 -20.500517 -63.002271 -800 0 -0.1239586 -175.28746 
27.93 -1.0816656 -155.32455 -800 0 -71.713871 104.67128 -800 0 
	-800 0 -1.2150737 -137.40432 -800 0 -20.553776 -63.213014 
	-71.713871 104.67128 -800 0 -0.022237645 177.26816 -800 0 
	-800 0 -20.553776 -63.213014 -800 0 -0.12298938 -175.3392 
27.94 -1.0806628 -155.68077 -800 0 -71.723903 104.41436 -800 0 
	-800 0 -1.2123572 -137.78739 -800 0 -20.606839 -63.42435 
	-71.723903 104.41436 -800 0 -0.022257968 177.26672 -800 0 
	-800 0 -20.606839 -63.42435 -800 0 -0.12201194 -175.3908 
27.95 -1.0795775 -156.03736 -800 0 -71.733534 104.16347 -800 0 
	-800 0 -1.2095957 -138.16891 -800 0 -20.65971 -63.636243 
	-71.733534 104.16347 -800 0 -0.022278559 177.26527 -800 0 
	-800 0 -20.65971 -63.636243 -800 0 -0.12102677 -175.44226 
27.96 -1.0784054 -156.39434 -800 0 -71.742748 103.9186 -800 0 
	-800 0 -1.2067925 -138.54888 -800 0 -20.71239 -63.848651 
	-71.742748 103.9186 -800 0 -0.022299409 177.26382 -800 0 
	-800 0 -20.71239 -63.848651 -800 0 -0.12003437 -175.49359 
27.97 -1.0771419 -156.75174 -800 0 -71.751533 103.67976 -800 0 
	-800 0 -1.2039508 -138.9273 -800 0 -20.764881 -64.061535 
	-71.751533 103.67976 -800 0 -0.022320508 177.26238 -800 0 
	-800 0 -20.764881 -64.061535 -800 0 -0.11903524 -175.54478 
27.98 -1.0757822 -157.10956 -800 0 -71.759876 103.44694 -800 0 
	-800 0 -1.2010735 -139.3042 -800 0 -20.817185 -64.274854 
	-71.759876 103.44694 -800 0 -0.022341847 177.26092 -800 0 
	-800 0 -20.817185 -64.274854 -800 0 -0.11802987 -175.59585 
27.99 -1.0743214 -157.46785 -800 0 -71.767767 103.22015 -800 0 
	-800 0 -1.1981635 -139.67959 -800 0 -20.869302 -64.488567 
	-71.767767 103.22015 -800 0 -0.022363417 177.25947 -800 0 
	-800 0 -20.869302 -64.488567 -800 0 -0.11701874 -175.64679 
28 -1.0727541 -157.82662 -800 0 -71.775197 102.99939 -800 0 
	-800 0 -1.1952232 -140.05348 -800 0 -20.921234 -64.702632 
	-71.775197 102.99939 -800 0 -0.022385208 177.25802 -800 0 
	-800 0 -20.921234 -64.702632 -800 0 -0.11600234 -175.6976 
28.01 -1.0726195 -158.18701 -800 0 -71.780941 102.74651 -800 0 
	-800 0 -1.1914806 -140.42814 -800 0 -20.976177 -64.921576 
	-71.780941 102.74651 -800 0 -0.022398997 177.2566 -800 0 
	-800 0 -20.976177 -64.921576 -800 0 -0.11523109 -175.75011 
28.02 -1.0724062 -158.54818 -800 0 -71.786009 102.49869 -800 0 
	-800 0 -1.1877217 -140.80129 -800 0 -21.030986 -65.140933 
	-71.786009 102.49869 -800 0 -0.022412962 177.25518 -800 0 
	-800 0 -21.030986 -65.140933 -800 0 -0.11445269 -175.80253 
28.03 -1.0721093 -158.91017 -800 0 -71.790392 102.25597 -800 0 
	-800 0 -1.1839484 -141.17295 -800 0 -21.085663 -65.360666 
	-71.790392 102.25597 -800 0 -0.022427096 177.25376 -800 0 
	-800 0 -21.085663 -65.360666 -800 0 -0.11366755 -175.85486 
28.04 -1.0717234 -159.27302 -800 0 -71.794081 102.01838 -800 0 
	-800 0 -1.1801627 -141.54312 -800 0 -21.140207 -65.580742 
	-71.794081 102.01838 -800 0 -0.02244139 177.25234 -800 0 
	-800 0 -21.140207 -65.580742 -800 0 -0.11287609 -175.90709 
28.05 -1.071243 -159.63678 -800 0 -71.797067 101.78596 -800 0 
	-800 0 -1.1763664 -141.91182 -800 0 -21.194616 -65.801127 
	-71.797067 101.78596 -800 0 -0.022455838 177.25092 -800 0 
	-800 0 -21.194616 -65.801127 -800 0 -0.11207869 -175.95925 
28.06 -1.0706622 -160.00149 -800 0 -71.799342 101.55875 -800 0 
	-800 0 -1.1725613 -142.27906 -800 0 -21.24889 -66.02179 
	-71.799342 101.55875 -800 0 -0.022470433 177.2495 -800 0 
	-800 0 -21.24889 -66.02179 -800 0 -0.11127571 -176.01132 
28.07 -1.0699751 -160.36721 -800 0 -71.8009 101.33681 -800 0 
	-800 0 -1.1687489 -142.64484 -800 0 -21.303028 -66.242701 
	-71.8009 101.33681 -800 0 -0.022485169 177.24807 -800 0 
	-800 0 -21.303028 -66.242701 -800 0 -0.11046746 -176.0633 
28.08 -1.0691753 -160.73398 -800 0 -71.801734 101.12019 -800 0 
	-800 0 -1.1649307 -143.00919 -800 0 -21.357027 -66.463832 
	-71.801734 101.12019 -800 0 -0.022500039 177.24665 -800 0 
	-800 0 -21.357027 -66.463832 -800 0 -0.10965426 -176.11521 
28.09 -1.0682561 -161.10186 -800 0 -71.801838 100.90896 -800 0 
	-800 0 -1.1611083 -143.3721 -800 0 -21.410886 -66.685157 
	-71.801838 100.90896 -800 0 -0.022515038 177.24522 -800 0 
	-800 0 -21.410886 -66.685157 -800 0 -0.10883636 -176.16704 
28.1 -1.0672104 -161.4709 -800 0 -71.801206 100.70318 -800 0 
	-800 0 -1.1572828 -143.73359 -800 0 -21.464602 -66.906651 
	-71.801206 100.70318 -800 0 -0.022530158 177.24379 -800 0 
	-800 0 -21.464602 -66.906651 -800 0 -0.10801401 -176.21879 
28.11 -1.0678455 -161.842 -800 0 -71.798767 100.45259 -800 0 
	-800 0 -1.1539274 -144.09148 -800 0 -21.513214 -67.135378 
	-71.798767 100.45259 -800 0 -0.022538412 177.2424 -800 0 
	-800 0 -21.513214 -67.135378 -800 0 -0.10689666 -176.27009 
28.12 -1.0684021 -162.21467 -800 0 -71.795381 100.20628 -800 0 
	-800 0 -1.1505705 -144.44802 -800 0 -21.561601 -67.363912 
	-71.795381 100.20628 -800 0 -0.022546759 177.241 -800 0 
	-800 0 -21.561601 -67.363912 -800 0 -0.1057776 -176.32128 
28.13 -1.0688742 -162.58897 -800 0 -71.791038 99.964351 -800 0 
	-800 0 -1.1472132 -144.80321 -800 0 -21.609762 -67.59223 
	-71.791038 99.964351 -800 0 -0.022555195 177.2396 -800 0 
	-800 0 -21.609762 -67.59223 -800 0 -0.10465701 -176.37235 
28.14 -1.0692556 -162.965 -800 0 -71.785725 99.72689 -800 0 
	-800 0 -1.1438564 -145.15706 -800 0 -21.657693 -67.820306 
	-71.785725 99.72689 -800 0 -0.022563716 177.2382 -800 0 
	-800 0 -21.657693 -67.820306 -800 0 -0.10353506 -176.42331 
28.15 -1.06954 -163.34286 -800 0 -71.779429 99.493997 -800 0 
	-800 0 -1.140501 -145.50958 -800 0 -21.705392 -68.04812 
	-71.779429 99.493997 -800 0 -0.022572318 177.2368 -800 0 
	-800 0 -21.705392 -68.04812 -800 0 -0.10241187 -176.47416 
28.16 -1.0697203 -163.72262 -800 0 -71.772137 99.265778 -800 0 
	-800 0 -1.1371478 -145.86079 -800 0 -21.752855 -68.275653 
	-71.772137 99.265778 -800 0 -0.022580996 177.2354 -800 0 
	-800 0 -21.752855 -68.275653 -800 0 -0.10128756 -176.5249 
28.17 -1.0697892 -164.1044 -800 0 -71.763836 99.042352 -800 0 
	-800 0 -1.1337974 -146.21068 -800 0 -21.800079 -68.502889 
	-71.763836 99.042352 -800 0 -0.022589748 177.23399 -800 0 
	-800 0 -21.800079 -68.502889 -800 0 -0.10016218 -176.57553 
28.18 -1.0697391 -164.48829 -800 0 -71.754512 98.823843 -800 0 
	-800 0 -1.1304506 -146.55926 -800 0 -21.847063 -68.729813 
	-71.754512 98.823843 -800 0 -0.022598569 177.23259 -800 0 
	-800 0 -21.847063 -68.729813 -800 0 -0.099035772 -176.62606 
28.19 -1.0695618 -164.87441 -800 0 -71.744152 98.610388 -800 0 
	-800 0 -1.127108 -146.90655 -800 0 -21.893802 -68.956414 
	-71.744152 98.610388 -800 0 -0.022607457 177.23119 -800 0 
	-800 0 -21.893802 -68.956414 -800 0 -0.097908356 -176.67648 
28.2 -1.0692487 -165.26285 -800 0 -71.732741 98.402131 -800 0 
	-800 0 -1.1237701 -147.25256 -800 0 -21.940293 -69.182681 
	-71.732741 98.402131 -800 0 -0.022616407 177.22978 -800 0 
	-800 0 -21.940293 -69.182681 -800 0 -0.096779915 -176.72679 
28.21 -1.0709988 -165.65295 -800 0 -71.720617 98.139761 -800 0 
	-800 0 -1.121249 -147.59681 -800 0 -21.991445 -69.348043 
	-71.720617 98.139761 -800 0 -0.022620513 177.2284 -800 0 
	-800 0 -21.991445 -69.348043 -800 0 -0.096928464 -176.7776 
28.22 -1.0726922 -166.04587 -800 0 -71.707232 97.881057 -800 0 
	-800 0 -1.1187153 -147.93983 -800 0 -22.042511 -69.513631 
	-71.707232 97.881057 -800 0 -0.022624664 177.22702 -800 0 
	-800 0 -22.042511 -69.513631 -800 0 -0.097069002 -176.82841 
28.23 -1.0743236 -166.44176 -800 0 -71.692559 97.626151 -800 0 
	-800 0 -1.1161697 -148.28162 -800 0 -22.093488 -69.679451 
	-71.692559 97.626151 -800 0 -0.02262886 177.22564 -800 0 
	-800 0 -22.093488 -69.679451 -800 0 -0.097201494 -176.87923 
28.24 -1.0758874 -166.84079 -800 0 -71.676571 97.375186 -800 0 
	-800 0 -1.113613 -148.62219 -800 0 -22.144376 -69.845509 
	-71.676571 97.375186 -800 0 -0.022633096 177.22426 -800 0 
	-800 0 -22.144376 -69.845509 -800 0 -0.097325885 -176.93006 
28.25 -1.0773773 -167.24312 -800 0 -71.65924 97.128312 -800 0 
	-800 0 -1.1110457 -148.96155 -800 0 -22.195171 -70.011814 
	-71.65924 97.128312 -800 0 -0.02263737 177.22288 -800 0 
	-800 0 -22.195171 -70.011814 -800 0 -0.097442105 -176.9809 
28.26 -1.0787869 -167.64893 -800 0 -71.640534 96.885689 -800 0 
	-800 0 -1.1084686 -149.2997 -800 0 -22.245871 -70.178375 
	-71.640534 96.885689 -800 0 -0.022641681 177.2215 -800 0 
	-800 0 -22.245871 -70.178375 -800 0 -0.097550065 -177.03175 
28.27 -1.0801092 -168.05842 -800 0 -71.620421 96.647492 -800 0 
	-800 0 -1.1058821 -149.63666 -800 0 -22.296476 -70.345203 
	-71.620421 96.647492 -800 0 -0.022646027 177.22012 -800 0 
	-800 0 -22.296476 -70.345203 -800 0 -0.097649662 -177.08262 
28.28 -1.0813366 -168.47176 -800 0 -71.598866 96.413902 -800 0 
	-800 0 -1.1032868 -149.97242 -800 0 -22.346983 -70.512311 
	-71.598866 96.413902 -800 0 -0.022650404 177.21873 -800 0 
	-800 0 -22.346983 -70.512311 -800 0 -0.097740778 -177.1335 
28.29 -1.0824609 -168.88918 -800 0 -71.575833 96.185112 -800 0 
	-800 0 -1.1006833 -150.307 -800 0 -22.397391 -70.679714 
	-71.575833 96.185112 -800 0 -0.022654812 177.21735 -800 0 
	-800 0 -22.397391 -70.679714 -800 0 -0.09782328 -177.1844 
28.3 -1.0834733 -169.31089 -800 0 -71.551283 95.961327 -800 0 
	-800 0 -1.098072 -150.64039 -800 0 -22.447699 -70.847424 
	-71.551283 95.961327 -800 0 -0.022659248 177.21596 -800 0 
	-800 0 -22.447699 -70.847424 -800 0 -0.097897027 -177.23532 
28.31 -1.0871559 -169.73349 -800 0 -71.527756 95.672804 -800 0 
	-800 0 -1.0955151 -150.97041 -800 0 -22.496662 -71.0077 
	-71.527756 95.672804 -800 0 -0.022661279 177.2146 -800 0 
	-800 0 -22.496662 -71.0077 -800 0 -0.097750301 -177.28633 
28.32 -1.0908626 -170.16095 -800 0 -71.502518 95.387127 -800 0 
	-800 0 -1.0929504 -151.29927 -800 0 -22.545487 -71.168202 
	-71.502518 95.387127 -800 0 -0.022663328 177.21324 -800 0 
	-800 0 -22.545487 -71.168202 -800 0 -0.097594449 -177.33732 
28.33 -1.0945926 -170.59354 -800 0 -71.475513 95.104438 -800 0 
	-800 0 -1.0903784 -151.627 -800 0 -22.594171 -71.328942 
	-71.475513 95.104438 -800 0 -0.022665394 177.21188 -800 0 
	-800 0 -22.594171 -71.328942 -800 0 -0.097429358 -177.38832 
28.34 -1.0983447 -171.03155 -800 0 -71.446685 94.824887 -800 0 
	-800 0 -1.0877997 -151.95359 -800 0 -22.642714 -71.48993 
	-71.446685 94.824887 -800 0 -0.022667476 177.21052 -800 0 
	-800 0 -22.642714 -71.48993 -800 0 -0.097254906 -177.43931 
28.35 -1.1021175 -171.47528 -800 0 -71.415973 94.54863 -800 0 
	-800 0 -1.0852146 -152.27905 -800 0 -22.691116 -71.65118 
	-71.415973 94.54863 -800 0 -0.022669573 177.20916 -800 0 
	-800 0 -22.691116 -71.65118 -800 0 -0.097070962 -177.4903 
28.36 -1.105909 -171.92505 -800 0 -71.38331 94.275828 -800 0 
	-800 0 -1.0826237 -152.60339 -800 0 -22.739376 -71.812704 
	-71.38331 94.275828 -800 0 -0.022671683 177.20779 -800 0 
	-800 0 -22.739376 -71.812704 -800 0 -0.096877391 -177.5413 
28.37 -1.1097166 -172.38121 -800 0 -71.348628 94.006651 -800 0 
	-800 0 -1.0800274 -152.92662 -800 0 -22.787494 -71.974515 
	-71.348628 94.006651 -800 0 -0.022673805 177.20643 -800 0 
	-800 0 -22.787494 -71.974515 -800 0 -0.096674046 -177.5923 
28.38 -1.113537 -172.84412 -800 0 -71.311852 93.741277 -800 0 
	-800 0 -1.077426 -153.24874 -800 0 -22.83547 -72.136626 
	-71.311852 93.741277 -800 0 -0.022675939 177.20506 -800 0 
	-800 0 -22.83547 -72.136626 -800 0 -0.096460778 -177.64331 
28.39 -1.1173662 -173.31416 -800 0 -71.272903 93.479889 -800 0 
	-800 0 -1.0748201 -153.56976 -800 0 -22.883304 -72.299052 
	-71.272903 93.479889 -800 0 -0.022678083 177.20369 -800 0 
	-800 0 -22.883304 -72.299052 -800 0 -0.096237429 -177.69433 
28.4 -1.1211988 -173.79175 -800 0 -71.231696 93.222675 -800 0 
	-800 0 -1.07221 -153.8897 -800 0 -22.930996 -72.461806 
	-71.231696 93.222675 -800 0 -0.022680236 177.20233 -800 0 
	-800 0 -22.930996 -72.461806 -800 0 -0.096003836 -177.74536 
28.41 -1.1287063 -174.26892 -800 0 -71.193699 92.886817 -800 0 
	-800 0 -1.0690832 -154.20823 -800 0 -22.974074 -72.631586 
	-71.193699 92.886817 -800 0 -0.022682469 177.20099 -800 0 
	-800 0 -22.974074 -72.631586 -800 0 -0.095907007 -177.79508 
28.42 -1.1364584 -174.75423 -800 0 -71.153299 92.551911 -800 0 
	-800 0 -1.0659606 -154.5257 -800 0 -23.017016 -72.801522 
	-71.153299 92.551911 -800 0 -0.022684706 177.19965 -800 0 
	-800 0 -23.017016 -72.801522 -800 0 -0.095801283 -177.84484 
28.43 -1.1444667 -175.24816 -800 0 -71.110399 92.217992 -800 0 
	-800 0 -1.0628423 -154.84212 -800 0 -23.059824 -72.971627 
	-71.110399 92.217992 -800 0 -0.022686946 177.19831 -800 0 
	-800 0 -23.059824 -72.971627 -800 0 -0.095686466 -177.89465 
28.44 -1.1527424 -175.75121 -800 0 -71.064891 91.885089 -800 0 
	-800 0 -1.0597287 -155.15751 -800 0 -23.102498 -73.141917 
	-71.064891 91.885089 -800 0 -0.022689188 177.19697 -800 0 
	-800 0 -23.102498 -73.141917 -800 0 -0.095562355 -177.9445 
28.45 -1.1612967 -176.26396 -800 0 -71.016662 91.553226 -800 0 
	-800 0 -1.05662 -155.47186 -800 0 -23.145038 -73.312408 
	-71.016662 91.553226 -800 0 -0.022691432 177.19563 -800 0 
	-800 0 -23.145038 -73.312408 -800 0 -0.095428743 -177.9944 
28.46 -1.1701399 -176.787 -800 0 -70.965592 91.222418 -800 0 
	-800 0 -1.0535164 -155.78519 -800 0 -23.187447 -73.483114 
	-70.965592 91.222418 -800 0 -0.022693676 177.19428 -800 0 
	-800 0 -23.187447 -73.483114 -800 0 -0.095285421 -178.04436 
28.47 -1.1792816 -177.32099 -800 0 -70.911551 90.892677 -800 0 
	-800 0 -1.0504182 -156.09749 -800 0 -23.229724 -73.654051 
	-70.911551 90.892677 -800 0 -0.022695921 177.19294 -800 0 
	-800 0 -23.229724 -73.654051 -800 0 -0.095132172 -178.09438 
28.48 -1.1887304 -177.86662 -800 0 -70.854401 90.564004 -800 0 
	-800 0 -1.0473256 -156.40879 -800 0 -23.271872 -73.825234 
	-70.854401 90.564004 -800 0 -0.022698167 177.19159 -800 0 
	-800 0 -23.271872 -73.825234 -800 0 -0.094968778 -178.14446 
28.49 -1.1984933 -178.42467 -800 0 -70.793995 90.236391 -800 0 
	-800 0 -1.0442389 -156.71908 -800 0 -23.313892 -73.996681 
	-70.793995 90.236391 -800 0 -0.022700412 177.19025 -800 0 
	-800 0 -23.313892 -73.996681 -800 0 -0.094795011 -178.19461 
28.5 -1.2085756 -178.99598 -800 0 -70.730175 89.909817 -800 0 
	-800 0 -1.0411584 -157.02837 -800 0 -23.355784 -74.168405 
	-70.730175 89.909817 -800 0 -0.022702656 177.1889 -800 0 
	-800 0 -23.355784 -74.168405 -800 0 -0.094610643 -178.24482 
28.51 -1.2238794 -179.56708 -800 0 -70.670776 89.485788 -800 0 
	-800 0 -1.0392455 -157.33408 -800 0 -23.398703 -74.285366 
	-70.670776 89.485788 -800 0 -0.022707241 177.18758 -800 0 
	-800 0 -23.398703 -74.285366 -800 0 -0.09473356 -178.29655 
28.52 -1.2399463 179.84765 -800 0 -70.607827 89.057507 -800 0 
	-800 0 -1.0373269 -157.63885 -800 0 -23.441553 -74.402463 
	-70.607827 89.057507 -800 0 -0.022711824 177.18627 -800 0 
	-800 0 -23.441553 -74.402463 -800 0 -0.094843938 -178.34837 
28.53 -1.2568208 179.24716 -800 0 -70.541152 88.624601 -800 0 
	-800 0 -1.035403 -157.94271 -800 0 -23.484338 -74.519704 
	-70.541152 88.624601 -800 0 -0.022716404 177.18495 -800 0 
	-800 0 -23.484338 -74.519704 -800 0 -0.094941618 -178.4003 
28.54 -1.2745506 178.63033 -800 0 -70.470558 88.18665 -800 0 
	-800 0 -1.0334742 -158.24566 -800 0 -23.52706 -74.637096 
	-70.470558 88.18665 -800 0 -0.022720981 177.18363 -800 0 
	-800 0 -23.52706 -74.637096 -800 0 -0.095026439 -178.45232 
28.55 -1.2931865 177.99586 -800 0 -70.39584 87.743184 -800 0 
	-800 0 -1.031541 -158.5477 -800 0 -23.569723 -74.754646 
	-70.39584 87.743184 -800 0 -0.022725555 177.18231 -800 0 
	-800 0 -23.569723 -74.754646 -800 0 -0.095098231 -178.50445 
28.56 -1.3127838 177.34235 -800 0 -70.316776 87.293667 -800 0 
	-800 0 -1.0296038 -158.84884 -800 0 -23.612329 -74.872363 
	-70.316776 87.293667 -800 0 -0.022730127 177.18099 -800 0 
	-800 0 -23.612329 -74.872363 -800 0 -0.095156819 -178.5567 
28.57 -1.3334029 176.66819 -800 0 -70.233127 86.8375 -800 0 
	-800 0 -1.0276629 -159.14909 -800 0 -23.654882 -74.990252 
	-70.233127 86.8375 -800 0 -0.022734696 177.17967 -800 0 
	-800 0 -23.654882 -74.990252 -800 0 -0.095202019 -178.60906 
28.58 -1.3551107 175.9716 -800 0 -70.144634 86.374003 -800 0 
	-800 0 -1.0257188 -159.44844 -800 0 -23.697385 -75.108323 
	-70.144634 86.374003 -800 0 -0.022739263 177.17834 -800 0 
	-800 0 -23.697385 -75.108323 -800 0 -0.09523364 -178.66154 
28.59 -1.3779822 175.25054 -800 0 -70.051017 85.902398 -800 0 
	-800 0 -1.023772 -159.74692 -800 0 -23.739842 -75.226582 
	-70.051017 85.902398 -800 0 -0.022743829 177.17702 -800 0 
	-800 0 -23.739842 -75.226582 -800 0 -0.09525148 -178.71414 
28.6 -1.4021027 174.50274 -800 0 -69.951972 85.421799 -800 0 
	-800 0 -1.0218227 -160.04452 -800 0 -23.782256 -75.345037 
	-69.951972 85.421799 -800 0 -0.022748393 177.17569 -800 0 
	-800 0 -23.782256 -75.345037 -800 0 -0.095255332 -178.76687 
28.61 -1.4348888 173.74995 -800 0 -69.857842 84.808339 -800 0 
	-800 0 -1.0200004 -160.34066 -800 0 -23.828684 -75.495975 
	-69.857842 84.808339 -800 0 -0.022757135 177.1744 -800 0 
	-800 0 -23.828684 -75.495975 -800 0 -0.095256053 -178.81822 
28.62 -1.4700001 172.96766 -800 0 -69.758141 84.175894 -800 0 
	-800 0 -1.018176 -160.63589 -800 0 -23.87502 -75.647415 
	-69.758141 84.175894 -800 0 -0.022765879 177.17311 -800 0 
	-800 0 -23.87502 -75.647415 -800 0 -0.095249148 -178.86968 
28.63 -1.5076906 172.15297 -800 0 -69.652546 83.522526 -800 0 
	-800 0 -1.0163499 -160.93021 -800 0 -23.921267 -75.79936 
	-69.652546 83.522526 -800 0 -0.022774626 177.17182 -800 0 
	-800 0 -23.921267 -75.79936 -800 0 -0.095234547 -178.92125 
28.64 -1.5482584 171.30256 -800 0 -69.540711 82.846029 -800 0 
	-800 0 -1.0145226 -161.22364 -800 0 -23.967427 -75.951816 
	-69.540711 82.846029 -800 0 -0.022783377 177.17052 -800 0 
	-800 0 -23.967427 -75.951816 -800 0 -0.095212172 -178.97294 
28.65 -1.5920546 170.41271 -800 0 -69.422267 82.143886 -800 0 
	-800 0 -1.0126945 -161.51618 -800 0 -24.013504 -76.104788 
	-69.422267 82.143886 -800 0 -0.022792134 177.16923 -800 0 
	-800 0 -24.013504 -76.104788 -800 0 -0.09518194 -179.02475 
28.66 -1.6394953 169.4792 -800 0 -69.296824 81.413218 -800 0 
	-800 0 -1.010866 -161.80784 -800 0 -24.059503 -76.258282 
	-69.296824 81.413218 -800 0 -0.022800896 177.16793 -800 0 
	-800 0 -24.059503 -76.258282 -800 0 -0.095143758 -179.07669 
28.67 -1.691072 168.49726 -800 0 -69.163966 80.650745 -800 0 
	-800 0 -1.0090377 -162.09862 -800 0 -24.105425 -76.412304 
	-69.163966 80.650745 -800 0 -0.022809667 177.16663 -800 0 
	-800 0 -24.105425 -76.412304 -800 0 -0.095097528 -179.12875 
28.68 -1.7473695 167.46147 -800 0 -69.023258 79.852711 -800 0 
	-800 0 -1.0072099 -162.38853 -800 0 -24.151276 -76.566859 
	-69.023258 79.852711 -800 0 -0.022818448 177.16534 -800 0 
	-800 0 -24.151276 -76.566859 -800 0 -0.095043142 -179.18096 
28.69 -1.8090839 166.36567 -800 0 -68.874243 79.014817 -800 0 
	-800 0 -1.005383 -162.67758 -800 0 -24.197058 -76.721953 
	-68.874243 79.014817 -800 0 -0.022827241 177.16404 -800 0 
	-800 0 -24.197058 -76.721953 -800 0 -0.094980485 -179.2333 
28.7 -1.877046 165.20286 -800 0 -68.716446 78.132146 -800 0 
	-800 0 -1.0035575 -162.96577 -800 0 -24.242777 -76.877593 
	-68.716446 78.132146 -800 0 -0.022836047 177.16273 -800 0 
	-800 0 -24.242777 -76.877593 -800 0 -0.094909431 -179.28579 
28.71 -1.9651165 164.02541 -800 0 -68.56756 77.042949 -800 0 
	-800 0 -1.001462 -163.25744 -800 0 -24.275452 -77.001529 
	-68.56756 77.042949 -800 0 -0.022850316 177.16147 -800 0 
	-800 0 -24.275452 -77.001529 -800 0 -0.095259292 -179.339 
28.72 -2.0635983 162.77594 -800 0 -68.410716 75.886636 -800 0 
	-800 0 -0.99937199 -163.54829 -800 0 -24.30807 -77.125103 
	-68.410716 75.886636 -800 0 -0.02286461 177.1602 -800 0 
	-800 0 -24.30807 -77.125103 -800 0 -0.095600072 -179.39242 
28.73 -2.1742803 161.44676 -800 0 -68.245703 74.65528 -800 0 
	-800 0 -0.99728782 -163.83833 -800 0 -24.340635 -77.248312 
	-68.245703 74.65528 -800 0 -0.022878931 177.15893 -800 0 
	-800 0 -24.340635 -77.248312 -800 0 -0.095931613 -179.44607 
28.74 -2.2993257 160.02931 -800 0 -68.072374 73.339948 -800 0 
	-800 0 -0.99520972 -164.12757 -800 0 -24.373151 -77.371151 
	-68.072374 73.339948 -800 0 -0.022893283 177.15767 -800 0 
	-800 0 -24.373151 -77.371151 -800 0 -0.09625375 -179.49995 
28.75 -2.441364 158.51407 -800 0 -67.890663 71.930585 -800 0 
	-800 0 -0.99313796 -164.41601 -800 0 -24.405622 -77.493619 
	-67.890663 71.930585 -800 0 -0.022907667 177.1564 -800 0 
	-800 0 -24.405622 -77.493619 -800 0 -0.096566307 -179.55407 
28.76 -2.6036113 156.89048 -800 0 -67.700617 70.4159 -800 0 
	-800 0 -0.99107279 -164.70366 -800 0 -24.438053 -77.615709 
	-67.700617 70.4159 -800 0 -0.022922087 177.15512 -800 0 
	-800 0 -24.438053 -77.615709 -800 0 -0.096869097 -179.60843 
28.77 -2.7900256 155.1468 -800 0 -67.502432 68.783251 -800 0 
	-800 0 -0.98901446 -164.99051 -800 0 -24.470447 -77.73742 
	-67.502432 68.783251 -800 0 -0.022936545 177.15385 -800 0 
	-800 0 -24.470447 -77.73742 -800 0 -0.097161922 -179.66303 
28.78 -3.0055196 153.27013 -800 0 -67.296498 67.01852 -800 0 
	-800 0 -0.98696323 -165.27659 -800 0 -24.50281 -77.858748 
	-67.296498 67.01852 -800 0 -0.022951046 177.15258 -800 0 
	-800 0 -24.50281 -77.858748 -800 0 -0.097444575 -179.7179 
28.79 -3.2562442 151.24628 -800 0 -67.083465 65.106022 -800 0 
	-800 0 -0.98491934 -165.56188 -800 0 -24.535147 -77.979687 
	-67.083465 65.106022 -800 0 -0.022965591 177.1513 -800 0 
	-800 0 -24.535147 -77.979687 -800 0 -0.097716834 -179.77302 
28.8 -3.5499789 149.05995 -800 0 -66.864312 63.028457 -800 0 
	-800 0 -0.98288301 -165.8464 -800 0 -24.567462 -78.100236 
	-66.864312 63.028457 -800 0 -0.022980183 177.15003 -800 0 
	-800 0 -24.567462 -78.100236 -800 0 -0.097978463 -179.82841 
28.81 -3.9201319 146.92741 -800 0 -66.675414 60.595418 -800 0 
	-800 0 -0.98108093 -166.12739 -800 0 -24.608775 -78.204382 
	-66.675414 60.595418 -800 0 -0.02300074 177.14876 -800 0 
	-800 0 -24.608775 -78.204382 -800 0 -0.098404812 -179.88616 
28.82 -4.3589663 144.68157 -800 0 -66.488955 57.961061 -800 0 
	-800 0 -0.97928451 -166.40762 -800 0 -24.650141 -78.308465 
	-66.488955 57.961061 -800 0 -0.023021364 177.14748 -800 0 
	-800 0 -24.650141 -78.308465 -800 0 -0.098818852 -179.94422 
28.83 -4.8830128 142.33674 -800 0 -66.30816 55.1096 -800 0 
	-800 0 -0.97749407 -166.6871 -800 0 -24.691567 -78.412476 
	-66.30816 55.1096 -800 0 -0.023042056 177.14621 -800 0 
	-800 0 -24.691567 -78.412476 -800 0 -0.099220364 179.99741 
28.84 -5.5138909 139.92282 -800 0 -66.13701 52.026669 -800 0 
	-800 0 -0.97570994 -166.96581 -800 0 -24.733061 -78.516407 
	-66.13701 52.026669 -800 0 -0.023062818 177.14493 -800 0 
	-800 0 -24.733061 -78.516407 -800 0 -0.099609113 179.93872 
28.85 -6.2804321 137.49616 -800 0 -65.980309 48.700649 -800 0 
	-800 0 -0.97393243 -167.24379 -800 0 -24.774631 -78.62025 
	-65.980309 48.700649 -800 0 -0.023083649 177.14365 -800 0 
	-800 0 -24.774631 -78.62025 -800 0 -0.09998484 179.8797 
28.86 -7.2220688 135.15949 -800 0 -65.843705 45.124366 -800 0 
	-800 0 -0.97216186 -167.52102 -800 0 -24.816286 -78.723997 
	-65.843705 45.124366 -800 0 -0.023104549 177.14238 -800 0 
	-800 0 -24.816286 -78.723997 -800 0 -0.10034727 179.82034 
28.87 -8.3945145 133.10159 -800 0 -65.733621 41.297139 -800 0 
	-800 0 -0.9703985 -167.79751 -800 0 -24.858033 -78.827639 
	-65.733621 41.297139 -800 0 -0.023125517 177.1411 -800 0 
	-800 0 -24.858033 -78.827639 -800 0 -0.10069609 179.76063 
28.88 -9.8796914 131.68532 -800 0 -65.65709 37.226973 -800 0 
	-800 0 -0.96864265 -168.07328 -800 0 -24.899882 -78.93117 
	-65.65709 37.226973 -800 0 -0.023146548 177.13982 -800 0 
	-800 0 -24.899882 -78.93117 -800 0 -0.10103098 179.70057 
28.89 -11.802822 131.67001 -800 0 -65.621419 32.932624 -800 0 
	-800 0 -0.96689458 -168.34832 -800 0 -24.941842 -79.034581 
	-65.621419 32.932624 -800 0 -0.023167638 177.13854 -800 0 
	-800 0 -24.941842 -79.034581 -800 0 -0.10135158 179.64013 
28.9 -14.352682 134.86817 -800 0 -65.633723 28.445044 -800 0 
	-800 0 -0.96515454 -168.62264 -800 0 -24.983922 -79.137866 
	-65.633723 28.445044 -800 0 -0.023188782 177.13726 -800 0 
	-800 0 -24.983922 -79.137866 -800 0 -0.10165752 179.57932 
28.91 -17.419694 147.85776 -800 0 -65.756148 23.836999 -800 0 
	-800 0 -0.96410842 -168.8944 -800 0 -25.024397 -79.249848 
	-65.756148 23.836999 -800 0 -0.023215633 177.13595 -800 0 
	-800 0 -25.024397 -79.249848 -800 0 -0.10254225 179.52234 
28.92 -19.658791 177.70931 -800 0 -65.936995 19.193289 -800 0 
	-800 0 -0.96305957 -169.16547 -800 0 -25.065016 -79.362294 
	-65.936995 19.193289 -800 0 -0.023242559 177.13463 -800 0 
	-800 0 -25.065016 -79.362294 -800 0 -0.10342992 179.46497 
28.93 -18.178297 -148.8542 -800 0 -66.176877 14.574479 -800 0 
	-800 0 -0.96200825 -169.43587 -800 0 -25.105785 -79.475213 
	-66.176877 14.574479 -800 0 -0.023269559 177.13332 -800 0 
	-800 0 -25.105785 -79.475213 -800 0 -0.10432065 179.4072 
28.94 -15.114705 -132.46241 -800 0 -66.474252 10.040045 -800 0 
	-800 0 -0.9609547 -169.70559 -800 0 -25.146714 -79.588614 
	-66.474252 10.040045 -800 0 -0.023296638 177.13201 -800 0 
	-800 0 -25.146714 -79.588614 -800 0 -0.10521453 179.34903 
28.95 -12.496004 -126.6133 -800 0 -66.825621 5.6441123 -800 0 
	-800 0 -0.95989915 -169.97465 -800 0 -25.187812 -79.702506 
	-66.825621 5.6441123 -800 0 -0.023323801 177.13069 -800 0 
	-800 0 -25.187812 -79.702506 -800 0 -0.10611165 179.29043 
28.96 -10.466338 -125.21869 -800 0 -67.225935 1.4321505 -800 0 
	-800 0 -0.95884181 -170.24304 -800 0 -25.229087 -79.8169 
	-67.225935 1.4321505 -800 0 -0.023351055 177.12938 -800 0 
	-800 0 -25.229087 -79.8169 -800 0 -0.1070121 179.23141 
28.97 -8.8850458 -125.81954 -800 0 -67.669136 -2.5609449 -800 0 
	-800 0 -0.9577829 -170.51077 -800 0 -25.270551 -79.931805 
	-67.669136 -2.5609449 -800 0 -0.023378409 177.12806 -800 0 
	-800 0 -25.270551 -79.931805 -800 0 -0.10791594 179.17194 
28.98 -7.6317886 -127.37571 -800 0 -68.148696 -6.3113065 -800 0 
	-800 0 -0.95672261 -170.77784 -800 0 -25.312211 -80.047235 
	-68.148696 -6.3113065 -800 0 -0.02340587 177.12674 -800 0 
	-800 0 -25.312211 -80.047235 -800 0 -0.10882326 179.11201 
28.99 -6.6227827 -129.3927 -800 0 -68.658103 -9.8053588 -800 0 
	-800 0 -0.95566111 -171.04426 -800 0 -25.35408 -80.1632 
	-68.658103 -9.8053588 -800 0 -0.023433446 177.12542 -800 0 
	-800 0 -25.35408 -80.1632 -800 0 -0.10973411 179.05162 
29 -5.7998501 -131.61306 -800 0 -69.191212 -13.038305 -800 0 
	-800 0 -0.9545986 -171.31004 -800 0 -25.396167 -80.279715 
	-69.191212 -13.038305 -800 0 -0.023461144 177.1241 -800 0 
	-800 0 -25.396167 -80.279715 -800 0 -0.11064854 178.99074 
29.01 -5.1582618 -134.15312 -800 0 -69.767429 -15.757056 -800 0 
	-800 0 -0.95272968 -171.57815 -800 0 -25.43565 -80.372497 
	-69.767429 -15.757056 -800 0 -0.02349382 177.12276 -800 0 
	-800 0 -25.43565 -80.372497 -800 0 -0.11148413 178.92543 
29.02 -4.6246237 -136.57644 -800 0 -70.351226 -18.229557 -800 0 
	-800 0 -0.95087223 -171.84558 -800 0 -25.475318 -80.464903 
	-70.351226 -18.229557 -800 0 -0.023526672 177.12141 -800 0 
	-800 0 -25.475318 -80.464903 -800 0 -0.11230787 178.85955 
29.03 -4.1765297 -138.86962 -800 0 -70.93931 -20.470666 -800 0 
	-800 0 -0.94902638 -172.11234 -800 0 -25.515182 -80.556925 
	-70.93931 -20.470666 -800 0 -0.023559702 177.12007 -800 0 
	-800 0 -25.515182 -80.556925 -800 0 -0.11311914 178.79309 
29.04 -3.7971223 -141.02945 -800 0 -71.529066 -22.495708 -800 0 
	-800 0 -0.94719225 -172.37843 -800 0 -25.555255 -80.648554 
	-71.529066 -22.495708 -800 0 -0.023592915 177.11872 -800 0 
	-800 0 -25.555255 -80.648554 -800 0 -0.11391726 178.72602 
29.05 -3.4734763 -143.05846 -800 0 -72.118457 -24.319764 -800 0 
	-800 0 -0.94536994 -172.64386 -800 0 -25.595551 -80.739784 
	-72.118457 -24.319764 -800 0 -0.023626312 177.11737 -800 0 
	-800 0 -25.595551 -80.739784 -800 0 -0.11470151 178.65834 
29.06 -3.19553 -144.96237 -800 0 -72.70592 -25.95721 -800 0 
	-800 0 -0.94355953 -172.90862 -800 0 -25.636083 -80.830607 
	-72.70592 -25.95721 -800 0 -0.023659897 177.11602 -800 0 
	-800 0 -25.636083 -80.830607 -800 0 -0.11547111 178.59003 
29.07 -2.9553528 -146.74855 -800 0 -73.290279 -27.42145 -800 0 
	-800 0 -0.94176112 -173.17273 -800 0 -25.676865 -80.921015 
	-73.290279 -27.42145 -800 0 -0.023693671 177.11467 -800 0 
	-800 0 -25.676865 -80.921015 -800 0 -0.1162252 178.52106 
29.08 -2.7466265 -148.42505 -800 0 -73.870668 -28.724777 -800 0 
	-800 0 -0.93997478 -173.43619 -800 0 -25.717914 -81.011005 
	-73.870668 -28.724777 -800 0 -0.023727636 177.11332 -800 0 
	-800 0 -25.717914 -81.011005 -800 0 -0.1169629 178.45143 
29.09 -2.564271 -150.00008 -800 0 -74.446459 -29.878338 -800 0 
	-800 0 -0.93820057 -173.69901 -800 0 -25.759244 -81.10057 
	-74.446459 -29.878338 -800 0 -0.023761794 177.11197 -800 0 
	-800 0 -25.759244 -81.10057 -800 0 -0.11768322 178.3811 
29.1 -2.4041674 -151.48162 -800 0 -75.017217 -30.892145 -800 0 
	-800 0 -0.93643853 -173.96118 -800 0 -25.800872 -81.189708 
	-75.017217 -30.892145 -800 0 -0.023796148 177.11061 -800 0 
	-800 0 -25.800872 -81.189708 -800 0 -0.11838513 178.31008 
29.11 -2.2797469 -152.91003 -800 0 -75.585039 -31.554574 -800 0 
	-800 0 -0.93580618 -174.21962 -800 0 -25.842308 -81.203648 
	-75.585039 -31.554574 -800 0 -0.023834005 177.10925 -800 0 
	-800 0 -25.842308 -81.203648 -800 0 -0.11990274 178.24228 
29.12 -2.1688022 -154.24997 -800 0 -76.145861 -32.108345 -800 0 
	-800 0 -0.93518382 -174.47749 -800 0 -25.884136 -81.214972 
	-76.145861 -32.108345 -800 0 -0.0238721 177.10788 -800 0 
	-800 0 -25.884136 -81.214972 -800 0 -0.1214393 178.17375 
29.13 -2.0694706 -155.51036 -800 0 -76.699851 -32.55952 -800 0 
	-800 0 -0.93457168 -174.7348 -800 0 -25.926374 -81.22357 
	-76.699851 -32.55952 -800 0 -0.023910436 177.1065 -800 0 
	-800 0 -25.926374 -81.22357 -800 0 -0.12299532 178.10446 
29.14 -1.9801989 -156.69904 -800 0 -77.247188 -32.913324 -800 0 
	-800 0 -0.93397001 -174.99157 -800 0 -25.969044 -81.22933 
	-77.247188 -32.913324 -800 0 -0.023949013 177.10513 -800 0 
	-800 0 -25.969044 -81.22933 -800 0 -0.12457133 178.0344 
29.15 -1.8996844 -157.82288 -800 0 -77.788057 -33.174256 -800 0 
	-800 0 -0.93337906 -175.24779 -800 0 -26.012169 -81.232133 
	-77.788057 -33.174256 -800 0 -0.023987836 177.10376 -800 0 
	-800 0 -26.012169 -81.232133 -800 0 -0.12616787 177.96353 
29.16 -1.8268282 -158.88797 -800 0 -78.322636 -33.346175 -800 0 
	-800 0 -0.93279905 -175.50347 -800 0 -26.05577 -81.231852 
	-78.322636 -33.346175 -800 0 -0.024026904 177.10239 -800 0 
	-800 0 -26.05577 -81.231852 -800 0 -0.12778547 177.89184 
29.17 -1.7606984 -159.89966 -800 0 -78.851091 -33.432398 -800 0 
	-800 0 -0.93223023 -175.75862 -800 0 -26.099874 -81.228357 
	-78.851091 -33.432398 -800 0 -0.024066222 177.10101 -800 0 
	-800 0 -26.099874 -81.228357 -800 0 -0.12942468 177.81928 
29.18 -1.7005009 -160.86273 -800 0 -79.373573 -33.435754 -800 0 
	-800 0 -0.93167284 -176.01323 -800 0 -26.144504 -81.221509 
	-79.373573 -33.435754 -800 0 -0.024105789 177.09964 -800 0 
	-800 0 -26.144504 -81.221509 -800 0 -0.13108604 177.74584 
29.19 -1.6455561 -161.78143 -800 0 -79.890214 -33.358662 -800 0 
	-800 0 -0.93112712 -176.26733 -800 0 -26.189689 -81.211161 
	-79.890214 -33.358662 -800 0 -0.024145609 177.09827 -800 0 
	-800 0 -26.189689 -81.211161 -800 0 -0.1327701 177.67148 
29.2 -1.5952799 -162.65955 -800 0 -80.401123 -33.203187 -800 0 
	-800 0 -0.93059329 -176.5209 -800 0 -26.235455 -81.19716 
	-80.401123 -33.203187 -800 0 -0.024185682 177.09689 -800 0 
	-800 0 -26.235455 -81.19716 -800 0 -0.13447741 177.59617 
29.21 -1.5562912 -163.50706 -800 0 -80.904075 -32.823582 -800 0 
	-800 0 -0.9293832 -176.77811 -800 0 -26.279109 -81.238692 
	-80.904075 -32.823582 -800 0 -0.024227082 177.09551 -800 0 
	-800 0 -26.279109 -81.238692 -800 0 -0.13554364 177.51501 
29.22 -1.5201667 -164.31922 -800 0 -81.401296 -32.377103 -800 0 
	-800 0 -0.92818936 -177.03476 -800 0 -26.323299 -81.277121 
	-81.401296 -32.377103 -800 0 -0.024268758 177.09413 -800 0 
	-800 0 -26.323299 -81.277121 -800 0 -0.1366092 177.43286 
29.23 -1.4866393 -165.09903 -800 0 -81.892878 -31.864443 -800 0 
	-800 0 -0.92701189 -177.29088 -800 0 -26.368057 -81.312318 
	-81.892878 -31.864443 -800 0 -0.024310711 177.09275 -800 0 
	-800 0 -26.368057 -81.312318 -800 0 -0.13767393 177.34968 
29.24 -1.4554741 -165.84911 -800 0 -82.378882 -31.286181 -800 0 
	-800 0 -0.92585089 -177.54645 -800 0 -26.413414 -81.344143 
	-82.378882 -31.286181 -800 0 -0.024352942 177.09137 -800 0 
	-800 0 -26.413414 -81.344143 -800 0 -0.13873761 177.26544 
29.25 -1.4264641 -166.57187 -800 0 -82.859341 -30.642819 -800 0 
	-800 0 -0.9247065 -177.8015 -800 0 -26.459407 -81.372453 
	-82.859341 -30.642819 -800 0 -0.02439545 177.08999 -800 0 
	-800 0 -26.459407 -81.372453 -800 0 -0.13980001 177.18011 
29.26 -1.3994264 -167.26944 -800 0 -83.334257 -29.934814 -800 0 
	-800 0 -0.9235788 -178.05602 -800 0 -26.506071 -81.397094 
	-83.334257 -29.934814 -800 0 -0.024438235 177.0886 -800 0 
	-800 0 -26.506071 -81.397094 -800 0 -0.1408608 177.09364 
29.27 -1.374199 -167.94378 -800 0 -83.803614 -29.162625 -800 0 
	-800 0 -0.92246793 -178.31002 -800 0 -26.553445 -81.417907 
	-83.803614 -29.162625 -800 0 -0.024481296 177.08722 -800 0 
	-800 0 -26.553445 -81.417907 -800 0 -0.14191965 177.006 
29.28 -1.350638 -168.59663 -800 0 -84.26737 -28.326725 -800 0 
	-800 0 -0.92137398 -178.56351 -800 0 -26.601571 -81.434722 
	-84.26737 -28.326725 -800 0 -0.024524631 177.08584 -800 0 
	-800 0 -26.601571 -81.434722 -800 0 -0.14297612 176.91714 
29.29 -1.3286156 -169.22959 -800 0 -84.725468 -27.427635 -800 0 
	-800 0 -0.92029708 -178.8165 -800 0 -26.650492 -81.447361 
	-84.725468 -27.427635 -800 0 -0.024568238 177.08446 -800 0 
	-800 0 -26.650492 -81.447361 -800 0 -0.14402973 176.82703 
29.3 -1.3080178 -169.84412 -800 0 -85.177837 -26.465954 -800 0 
	-800 0 -0.91923734 -179.06899 -800 0 -26.700253 -81.455635 
	-85.177837 -26.465954 -800 0 -0.024612115 177.08307 -800 0 
	-800 0 -26.700253 -81.455635 -800 0 -0.14507992 176.7356 
29.31 -1.2916836 -170.44585 -800 0 -85.623323 -25.351381 -800 0 
	-800 0 -0.91852563 -179.31506 -800 0 -26.742058 -81.330824 
	-85.623323 -25.351381 -800 0 -0.02465453 177.0817 -800 0 
	-800 0 -26.742058 -81.330824 -800 0 -0.14699276 176.64644 
29.32 -1.2762548 -171.0316 -800 0 -86.063221 -24.180777 -800 0 
	-800 0 -0.91784569 -179.56066 -800 0 -26.784526 -81.196898 
	-86.063221 -24.180777 -800 0 -0.024697197 177.08032 -800 0 
	-800 0 -26.784526 -81.196898 -800 0 -0.14893659 176.55585 
29.33 -1.2616837 -171.6025 -800 0 -86.497486 -22.954717 -800 0 
	-800 0 -0.91719821 -179.80578 -800 0 -26.827687 -81.053404 
	-86.497486 -22.954717 -800 0 -0.024740111 177.07895 -800 0 
	-800 0 -26.827687 -81.053404 -800 0 -0.15091254 176.4638 
29.34 -1.2479277 -172.15958 -800 0 -86.926087 -21.673893 -800 0 
	-800 0 -0.91658396 179.94956 -800 0 -26.871569 -80.899854 
	-86.926087 -21.673893 -800 0 -0.024783266 177.07757 -800 0 
	-800 0 -26.871569 -80.899854 -800 0 -0.15292175 176.37022 
29.35 -1.234948 -172.70381 -800 0 -87.349014 -20.339096 -800 0 
	-800 0 -0.91600373 179.70536 -800 0 -26.916204 -80.735732 
	-87.349014 -20.339096 -800 0 -0.024826655 177.0762 -800 0 
	-800 0 -26.916204 -80.735732 -800 0 -0.15496542 176.27505 
29.36 -1.2227099 -173.23607 -800 0 -87.766287 -18.951209 -800 0 
	-800 0 -0.91545833 179.4616 -800 0 -26.961622 -80.560484 
	-87.766287 -18.951209 -800 0 -0.024870269 177.07482 -800 0 
	-800 0 -26.961622 -80.560484 -800 0 -0.15704476 176.17823 
29.37 -1.2111823 -173.75718 -800 0 -88.177965 -17.511141 -800 0 
	-800 0 -0.91494867 179.2183 -800 0 -27.007856 -80.373518 
	-88.177965 -17.511141 -800 0 -0.0249141 177.07345 -800 0 
	-800 0 -27.007856 -80.373518 -800 0 -0.15916106 176.0797 
29.38 -1.2003374 -174.26791 -800 0 -88.584151 -16.019812 -800 0 
	-800 0 -0.91447566 178.97543 -800 0 -27.05494 -80.174201 
	-88.584151 -16.019812 -800 0 -0.024958137 177.07208 -800 0 
	-800 0 -27.05494 -80.174201 -800 0 -0.16131561 175.97938 
29.39 -1.1901503 -174.76897 -800 0 -88.985003 -14.478085 -800 0 
	-800 0 -0.9140403 178.73299 -800 0 -27.102908 -79.961855 
	-88.985003 -14.478085 -800 0 -0.02500237 177.0707 -800 0 
	-800 0 -27.102908 -79.961855 -800 0 -0.16350977 175.87719 
29.4 -1.1805992 -175.26103 -800 0 -89.380742 -12.886689 -800 0 
	-800 0 -0.91364365 178.49097 -800 0 -27.151795 -79.735753 
	-89.380742 -12.886689 -800 0 -0.025046784 177.06933 -800 0 
	-800 0 -27.151795 -79.735753 -800 0 -0.16574491 175.77307 
29.41 -1.1724731 -175.75014 -800 0 -89.774124 -11.20282 -800 0 
	-800 0 -0.91343716 178.24484 -800 0 -27.21604 -79.517059 
	-89.774124 -11.20282 -800 0 -0.025086501 177.06798 -800 0 
	-800 0 -27.21604 -79.517059 -800 0 -0.16879291 175.66353 
29.42 -1.1647919 -176.23157 -800 0 -90.163837 -9.474728 -800 0 
	-800 0 -0.91326342 177.99907 -800 0 -27.281723 -79.282788 
	-90.163837 -9.474728 -800 0 -0.025126332 177.06663 -800 0 
	-800 0 -27.281723 -79.282788 -800 0 -0.1719163 175.55177 
29.43 -1.1575528 -176.70589 -800 0 -90.550398 -7.701931 -800 0 
	-800 0 -0.91312351 177.75365 -800 0 -27.348911 -79.031919 
	-90.550398 -7.701931 -800 0 -0.02516626 177.06528 -800 0 
	-800 0 -27.348911 -79.031919 -800 0 -0.17511863 175.43768 
29.44 -1.1507542 -177.17362 -800 0 -90.934408 -5.8833313 -800 0 
	-800 0 -0.91301858 177.50858 -800 0 -27.417672 -78.763346 
	-90.934408 -5.8833313 -800 0 -0.025206269 177.06393 -800 0 
	-800 0 -27.417672 -78.763346 -800 0 -0.17840363 175.32114 
29.45 -1.144396 -177.63527 -800 0 -91.316557 -4.017054 -800 0 
	-800 0 -0.91294986 177.26384 -800 0 -27.488079 -78.475867 
	-91.316557 -4.017054 -800 0 -0.02524634 177.06258 -800 0 
	-800 0 -27.488079 -78.475867 -800 0 -0.18177521 175.20206 
29.46 -1.1384793 -178.09133 -800 0 -91.697614 -2.1002703 -800 0 
	-800 0 -0.91291863 177.01942 -800 0 -27.560205 -78.168174 
	-91.697614 -2.1002703 -800 0 -0.025286453 177.06123 -800 0 
	-800 0 -27.560205 -78.168174 -800 0 -0.18523754 175.08029 
29.47 -1.1330066 -178.54227 -800 0 -92.078428 -0.12899133 -800 0 
	-800 0 -0.9129263 176.77531 -800 0 -27.634125 -77.83884 
	-92.078428 -0.12899133 -800 0 -0.02532659 177.05989 -800 0 
	-800 0 -27.634125 -77.83884 -800 0 -0.18879497 174.95571 
29.48 -1.1279823 -178.98856 -800 0 -92.459913 1.9021521 -800 0 
	-800 0 -0.91297436 176.53149 -800 0 -27.709919 -77.486313 
	-92.459913 1.9021521 -800 0 -0.025366729 177.05854 -800 0 
	-800 0 -27.709919 -77.486313 -800 0 -0.19245212 174.82818 
29.49 -1.1234122 -179.43063 -800 0 -92.843038 4.0001692 -800 0 
	-800 0 -0.91306441 176.28794 -800 0 -27.787664 -77.108892 
	-92.843038 4.0001692 -800 0 -0.025406847 177.05719 -800 0 
	-800 0 -27.787664 -77.108892 -800 0 -0.19621386 174.69755 
29.5 -1.1193042 -179.86894 -800 0 -93.22881 6.1740033 -800 0 
	-800 0 -0.91319815 176.04466 -800 0 -27.867441 -76.70472 
	-93.22881 6.1740033 -800 0 -0.025446924 177.05585 -800 0 
	-800 0 -27.867441 -76.70472 -800 0 -0.20008534 174.56365 
29.51 -1.114924 179.68539 -800 0 -93.635879 8.4223651 -800 0 
	-800 0 -0.91393383 175.80585 -800 0 -27.920487 -76.236394 
	-93.635879 8.4223651 -800 0 -0.025478946 177.05454 -800 0 
	-800 0 -27.920487 -76.236394 -800 0 -0.2065363 174.43881 
29.52 -1.1109306 179.24229 -800 0 -94.051036 10.769517 -800 0 
	-800 0 -0.9147164 175.56737 -800 0 -27.974071 -75.738656 
	-94.051036 10.769517 -800 0 -0.02551082 177.05323 -800 0 
	-800 0 -27.974071 -75.738656 -800 0 -0.21324727 174.31075 
29.53 -1.1073409 178.80129 -800 0 -94.475731 13.234702 -800 0 
	-800 0 -0.91554838 175.32921 -800 0 -28.028123 -75.209499 
	-94.475731 13.234702 -800 0 -0.025542524 177.05192 -800 0 
	-800 0 -28.028123 -75.209499 -800 0 -0.22023503 174.17928 
29.54 -1.1041744 178.36192 -800 0 -94.911339 15.841756 -800 0 
	-800 0 -0.9164325 175.09136 -800 0 -28.082558 -74.64676 
	-94.911339 15.841756 -800 0 -0.025574036 177.05062 -800 0 
	-800 0 -28.082558 -74.64676 -800 0 -0.22751786 174.04423 
29.55 -1.1014532 177.92367 -800 0 -95.359057 18.620066 -800 0 
	-800 0 -0.9173717 174.85381 -800 0 -28.137267 -74.048111 
	-95.359057 18.620066 -800 0 -0.025605333 177.04931 -800 0 
	-800 0 -28.137267 -74.048111 -800 0 -0.23511559 173.90541 
29.56 -1.0992027 177.48605 -800 0 -95.819743 21.605744 -800 0 
	-800 0 -0.9183692 174.61654 -800 0 -28.192119 -73.411045 
	-95.819743 21.605744 -800 0 -0.025636394 177.048 -800 0 
	-800 0 -28.192119 -73.411045 -800 0 -0.24304986 173.7626 
29.57 -1.097452 177.0485 -800 0 -96.293668 24.842955 -800 0 
	-800 0 -0.91942847 174.37956 -800 0 -28.246955 -72.732864 
	-96.293668 24.842955 -800 0 -0.025667198 177.0467 -800 0 
	-800 0 -28.246955 -72.732864 -800 0 -0.25134427 173.61558 
29.58 -1.0962349 176.61048 -800 0 -96.780142 28.38538 -800 0 
	-800 0 -0.92055328 174.14284 -800 0 -28.301581 -72.010676 
	-96.780142 28.38538 -800 0 -0.025697725 177.04539 -800 0 
	-800 0 -28.301581 -72.010676 -800 0 -0.26002465 173.46411 
29.59 -1.0955902 176.17138 -800 0 -97.276947 32.297523 -800 0 
	-800 0 -0.92174776 173.90638 -800 0 -28.355763 -71.24138 
	-97.276947 32.297523 -800 0 -0.025727957 177.04408 -800 0 
	-800 0 -28.355763 -71.24138 -800 0 -0.26911925 173.30792 
29.6 -1.0955634 175.73057 -800 0 -97.7795 36.655393 -800 0 
	-800 0 -0.92301638 173.67017 -800 0 -28.409222 -70.421661 
	-97.7795 36.655393 -800 0 -0.025757876 177.04278 -800 0 
	-800 0 -28.409222 -70.421661 -800 0 -0.27865913 173.14673 
29.61 -1.094986 175.27233 -800 0 -98.328106 41.640092 -800 0 
	-800 0 -0.92415233 173.43223 -800 0 -28.485206 -69.589269 
	-98.328106 41.640092 -800 0 -0.02577682 177.04152 -800 0 
	-800 0 -28.485206 -69.589269 -800 0 -0.28669489 172.96906 
29.62 -1.0950655 174.81 -800 0 -98.869008 47.332586 -800 0 
	-800 0 -0.92536406 173.19444 -800 0 -28.561344 -68.697224 
	-98.869008 47.332586 -800 0 -0.025795367 177.04026 -800 0 
	-800 0 -28.561344 -68.697224 -800 0 -0.29510302 172.78533 
29.63 -1.0958773 174.34263 -800 0 -99.379631 53.856659 -800 0 
	-800 0 -0.92665657 172.95679 -800 0 -28.637316 -67.740792 
	-99.379631 53.856659 -800 0 -0.025813508 177.039 -800 0 
	-800 0 -28.637316 -67.740792 -800 0 -0.30391108 172.59514 
29.64 -1.0975105 173.86917 -800 0 -99.825776 61.311558 -800 0 
	-800 0 -0.92803532 172.71925 -800 0 -28.712731 -66.714868 
	-99.825776 61.311558 -800 0 -0.025831235 177.03774 -800 0 
	-800 0 -28.712731 -66.714868 -800 0 -0.31314937 172.39807 
29.65 -1.1000718 173.38842 -800 0 -100.16075 69.72487 -800 0 
	-800 0 -0.92950634 172.48181 -800 0 -28.787105 -65.613972 
	-100.16075 69.72487 -800 0 -0.025848541 177.03648 -800 0 
	-800 0 -28.787105 -65.613972 -800 0 -0.32285129 172.19364 
29.66 -1.1036889 172.89907 -800 0 -100.32963 78.990745 -800 0 
	-800 0 -0.93107628 172.24444 -800 0 -28.859849 -64.432249 
	-100.32963 78.990745 -800 0 -0.025865424 177.03521 -800 0 
	-800 0 -28.859849 -64.432249 -800 0 -0.33305376 171.98132 
29.67 -1.1085167 172.3996 -800 0 -100.28154 88.824296 -800 0 
	-800 0 -0.93275248 172.00711 -800 0 -28.930246 -63.163487 
	-100.28154 88.824296 -800 0 -0.025881882 177.03395 -800 0 
	-800 0 -28.930246 -63.163487 -800 0 -0.34379763 171.76054 
29.68 -1.1147437 171.88832 -800 0 -99.987099 98.782672 -800 0 
	-800 0 -0.93454307 171.76979 -800 0 -28.997432 -61.801156 
	-99.987099 98.782672 -800 0 -0.025897916 177.03268 -800 0 
	-800 0 -28.997432 -61.801156 -800 0 -0.35512832 171.53066 
29.69 -1.1226012 171.36325 -800 0 -99.450849 108.37356 -800 0 
	-800 0 -0.93645709 171.53246 -800 0 -29.060369 -60.338471 
	-99.450849 108.37356 -800 0 -0.025913529 177.03142 -800 0 
	-800 0 -29.060369 -60.338471 -800 0 -0.36709641 171.29101 
29.7 -1.1323753 170.82215 -800 0 -98.708524 117.19499 -800 0 
	-800 0 -0.93850459 171.29507 -800 0 -29.117814 -58.76849 
	-98.708524 117.19499 -800 0 -0.025928729 177.03015 -800 0 
	-800 0 -29.117814 -58.76849 -800 0 -0.37975842 171.04079 
29.71 -1.1450112 170.25283 -800 0 -97.776458 125.13109 -800 0 
	-800 0 -0.94048914 171.05766 -800 0 -29.137118 -57.266094 
	-97.776458 125.13109 -800 0 -0.025931118 177.02893 -800 0 
	-800 0 -29.137118 -57.266094 -800 0 -0.40011941 170.77894 
29.72 -1.1605829 169.66129 -800 0 -96.738368 131.92972 -800 0 
	-800 0 -0.94260344 170.82037 -800 0 -29.145805 -55.661805 
	-96.738368 131.92972 -800 0 -0.025933079 177.02772 -800 0 
	-800 0 -29.145805 -55.661805 -800 0 -0.42208027 170.50495 
29.73 -1.1797362 169.04411 -800 0 -95.63755 137.64719 -800 0 
	-800 0 -0.94486048 170.58321 -800 0 -29.141798 -53.952346 
	-95.63755 137.64719 -800 0 -0.025934625 177.0265 -800 0 
	-800 0 -29.141798 -53.952346 -800 0 -0.44582529 170.21787 
29.74 -1.2033016 168.3974 -800 0 -94.503175 142.39289 -800 0 
	-800 0 -0.9472749 170.34615 -800 0 -29.122745 -52.135677 
	-94.503175 142.39289 -800 0 -0.02593577 177.02527 -800 0 
	-800 0 -29.122745 -52.135677 -800 0 -0.47156642 169.91666 
29.75 -1.2323567 167.71673 -800 0 -93.352575 146.28423 -800 0 
	-800 0 -0.94986326 170.10922 -800 0 -29.086017 -50.211445 
	-93.352575 146.28423 -800 0 -0.025936531 177.02405 -800 0 
	-800 0 -29.086017 -50.211445 -800 0 -0.49954831 169.60017 
29.76 -1.2683133 166.99721 -800 0 -92.194631 149.42371 -800 0 
	-800 0 -0.95264432 169.87239 -800 0 -29.028723 -48.181474 
	-92.194631 149.42371 -800 0 -0.025936924 177.02282 -800 0 
	-800 0 -29.028723 -48.181474 -800 0 -0.53005463 169.26716 
29.77 -1.3130382 166.23357 -800 0 -91.03274 151.88987 -800 0 
	-800 0 -0.95563941 169.63568 -800 0 -28.947734 -46.050314 
	-91.03274 151.88987 -800 0 -0.025936968 177.02159 -800 0 
	-800 0 -28.947734 -46.050314 -800 0 -0.56341566 168.91623 
29.78 -1.3690205 165.42043 -800 0 -89.867046 153.73511 -800 0 
	-800 0 -0.95887282 169.39911 -800 0 -28.839746 -43.825785 
	-89.867046 153.73511 -800 0 -0.025936681 177.02036 -800 0 
	-800 0 -28.839746 -43.825785 -800 0 -0.60001774 168.54589 
29.79 -1.4396003 164.55304 -800 0 -88.696021 154.98631 -800 0 
	-800 0 -0.96237226 169.1627 -800 0 -28.701351 -41.519493 
	-88.696021 154.98631 -800 0 -0.025936084 177.01912 -800 0 
	-800 0 -28.701351 -41.519493 -800 0 -0.64031496 168.15446 
29.8 -1.5292755 163.62847 -800 0 -87.517658 155.64631 -800 0 
	-800 0 -0.96616941 168.92649 -800 0 -28.529149 -39.147236 
	-87.517658 155.64631 -800 0 -0.025935197 177.01789 -800 0 
	-800 0 -28.529149 -39.147236 -800 0 -0.68484373 167.74015 
29.81 -1.6510851 162.70195 -800 0 -86.346789 155.21204 -800 0 
	-800 0 -0.97106315 168.69468 -800 0 -28.270952 -36.891004 
	-86.346789 155.21204 -800 0 -0.025927377 177.01666 -800 0 
	-800 0 -28.270952 -36.891004 -800 0 -0.73257478 167.37358 
29.82 -1.8063543 161.75995 -800 0 -85.180238 154.13261 -800 0 
	-800 0 -0.97634218 168.46389 -800 0 -27.976827 -34.686033 
	-85.180238 154.13261 -800 0 -0.025919299 177.01543 -800 0 
	-800 0 -27.976827 -34.686033 -800 0 -0.78518492 166.99189 
29.83 -2.0044107 160.84043 -800 0 -84.021288 152.35937 -800 0 
	-800 0 -0.98204171 168.23431 -800 0 -27.646645 -32.559624 
	-84.021288 152.35937 -800 0 -0.025910984 177.0142 -800 0 
	-800 0 -27.646645 -32.559624 -800 0 -0.8433348 166.59483 
29.84 -2.2564093 160.01124 -800 0 -82.875517 149.83195 -800 0 
	-800 0 -0.98819962 168.00619 -800 0 -27.280858 -30.539277 
	-82.875517 149.83195 -800 0 -0.025902452 177.01296 -800 0 
	-800 0 -27.280858 -30.539277 -800 0 -0.90779155 166.18237 
29.85 -2.5748928 159.38959 -800 0 -81.751069 146.47195 -800 0 
	-800 0 -0.99485615 167.77984 -800 0 -26.88048 -28.651983 
	-81.751069 146.47195 -800 0 -0.025893721 177.01172 -800 0 
	-800 0 -26.88048 -28.651983 -800 0 -0.97944726 165.75486 
29.86 -2.9714409 159.17808 -800 0 -80.661234 142.16839 -800 0 
	-800 0 -1.0020534 167.55563 -800 0 -26.447027 -26.923641 
	-80.661234 142.16839 -800 0 -0.02588481 177.01048 -800 0 
	-800 0 -26.447027 -26.923641 -800 0 -1.0593404 165.31313 
29.87 -3.4472238 159.71989 -800 0 -79.632036 136.7764 -800 0 
	-800 0 -1.0098342 167.33403 -800 0 -25.982458 -25.378641 
	-79.632036 136.7764 -800 0 -0.025875735 177.00924 -800 0 
	-800 0 -25.982458 -25.378641 -800 0 -1.1486799 164.85871 
29.88 -3.9665487 161.51715 -800 0 -78.712674 130.17834 -800 0 
	-800 0 -1.0182409 167.11562 -800 0 -25.489095 -24.039654 
	-78.712674 130.17834 -800 0 -0.02586651 177.00799 -800 0 
	-800 0 -25.489095 -24.039654 -800 0 -1.2488721 164.39415 
29.89 -4.4156712 165.00773 -800 0 -77.976357 122.43051 -800 0 
	-800 0 -1.0273125 166.90107 -800 0 -24.96956 -22.927592 
	-77.976357 122.43051 -800 0 -0.025857154 177.00674 -800 0 
	-800 0 -24.96956 -22.927592 -800 0 -1.3615485 163.92333 
29.9 -4.6104642 169.92356 -800 0 -77.497408 113.90541 -800 0 
	-800 0 -1.0370815 166.69124 -800 0 -24.426719 -22.061738 
	-77.497408 113.90541 -800 0 -0.025847688 177.00548 -800 0 
	-800 0 -24.426719 -22.061738 -800 0 -1.4885933 163.45206 
29.91 -4.3804906 174.70051 -800 0 -77.445409 105.32926 -800 0 
	-800 0 -1.0490952 166.49907 -800 0 -23.793497 -21.364305 
	-77.445409 105.32926 -800 0 -0.025837871 177.0042 -800 0 
	-800 0 -23.793497 -21.364305 -800 0 -1.6345548 162.91464 
29.92 -3.9256997 177.96049 -800 0 -77.634337 97.584786 -800 0 
	-800 0 -1.0620696 166.31581 -800 0 -23.140372 -20.982597 
	-77.634337 97.584786 -800 0 -0.025828024 177.00291 -800 0 
	-800 0 -23.140372 -20.982597 -800 0 -1.8019064 162.38353 
29.93 -3.4227571 179.59027 -800 0 -77.987169 90.985296 -800 0 
	-800 0 -1.0759865 166.14348 -800 0 -22.470931 -20.935556 
	-77.987169 90.985296 -800 0 -0.025818166 177.00162 -800 0 
	-800 0 -22.470931 -20.935556 -800 0 -1.9943695 161.87511 
29.94 -2.9716429 -179.94305 -800 0 -78.430793 85.570057 -800 0 
	-800 0 -1.0907688 165.98447 -800 0 -21.7891 -21.24255 
	-78.430793 85.570057 -800 0 -0.025808306 177.00032 -800 0 
	-800 0 -21.7891 -21.24255 -800 0 -2.2161969 161.41376 
29.95 -2.6013821 179.84596 -800 0 -78.911271 81.220964 -800 0 
	-800 0 -1.1062522 165.84154 -800 0 -21.099312 -21.923462 
	-78.911271 81.220964 -800 0 -0.025798454 176.99903 -800 0 
	-800 0 -21.099312 -21.923462 -800 0 -2.4720762 161.03524 
29.96 -2.3077959 179.28695 -800 0 -79.394486 77.76488 -800 0 
	-800 0 -1.1221482 165.71777 -800 0 -20.406708 -22.998336 
	-79.394486 77.76488 -800 0 -0.025788619 176.99773 -800 0 
	-800 0 -20.406708 -22.998336 -800 0 -2.7668399 160.7913 
29.97 -2.0770185 178.57075 -800 0 -79.86114 75.030102 -800 0 
	-800 0 -1.1379999 165.61636 -800 0 -19.71737 -24.486432 
	-79.86114 75.030102 -800 0 -0.02577881 176.99642 -800 0 
	-800 0 -19.71737 -24.486432 -800 0 -3.1048137 160.75552 
29.98 -1.8949485 177.79978 -800 0 -80.301498 72.868421 -800 0 
	-800 0 -1.153137 165.54032 -800 0 -19.038544 -26.404474 
	-80.301498 72.868421 -800 0 -0.025769034 176.99512 -800 0 
	-800 0 -19.038544 -26.404474 -800 0 -3.4885262 161.03003 
29.99 -1.7499586 177.02627 -800 0 -80.71151 71.159528 -800 0 
	-800 0 -1.1666399 165.49187 -800 0 -18.378803 -28.763971 
	-80.71151 71.159528 -800 0 -0.0257593 176.99381 -800 0 
	-800 0 -18.378803 -28.763971 -800 0 -3.9163706 161.75137 
30 -1.6331398 176.27543 -800 0 -81.090327 69.808397 -800 0 
	-800 0 -1.1773368 165.47169 -800 0 -17.748089 -31.567553 
	-81.090327 69.808397 -800 0 -0.025749617 176.9925 -800 0 
	-800 0 -17.748089 -31.567553 -800 0 -4.3787533 163.09046 
30.01 -1.5450359 175.52153 -800 0 -81.45949 68.992975 -800 0 
	-800 0 -1.1791718 165.46454 -800 0 -17.248648 -35.221907 
	-81.45949 68.992975 -800 0 -0.02573984 176.99116 -800 0 
	-800 0 -17.248648 -35.221907 -800 0 -4.7951152 165.66651 
30.02 -1.472147 174.82019 -800 0 -81.794277 68.367367 -800 0 
	-800 0 -1.1752566 165.46534 -800 0 -16.815624 -39.163463 
	-81.794277 68.367367 -800 0 -0.025730167 176.98982 -800 0 
	-800 0 -16.815624 -39.163463 -800 0 -5.1389036 169.07147 
30.03 -1.4110276 174.16585 -800 0 -82.098338 67.891703 -800 0 
	-800 0 -1.165199 165.46354 -800 0 -16.455916 -43.314908 
	-82.098338 67.891703 -800 0 -0.025720604 176.98848 -800 0 
	-800 0 -16.455916 -43.314908 -800 0 -5.3569088 173.15606 
30.04 -1.3591531 173.55306 -800 0 -82.374956 67.535137 -800 0 
	-800 0 -1.149211 165.44782 -800 0 -16.173411 -47.587274 
	-82.374956 67.535137 -800 0 -0.025711156 176.98713 -800 0 
	-800 0 -16.173411 -47.587274 -800 0 -5.4088113 177.57909 
30.05 -1.3146437 172.97683 -800 0 -82.627052 67.273524 -800 0 
	-800 0 -1.1281219 165.408 -800 0 -15.968422 -51.887309 
	-82.627052 67.273524 -800 0 -0.025701827 176.98578 -800 0 
	-800 0 -15.968422 -51.887309 -800 0 -5.2857217 -178.11272 
30.06 -1.2760771 172.43276 -800 0 -82.85721 67.087767 -800 0 
	-800 0 -1.1032383 165.33667 -800 0 -15.83766 -56.125965 
	-82.85721 67.087767 -800 0 -0.025692622 176.98443 -800 0 
	-800 0 -15.83766 -56.125965 -800 0 -5.014619 -174.32888 
30.07 -1.2423622 171.91701 -800 0 -83.06771 66.96262 -800 0 
	-800 0 -1.0760985 165.23017 -800 0 -15.774768 -60.226019 
	-83.06771 66.96262 -800 0 -0.025683543 176.98308 -800 0 
	-800 0 -15.774768 -60.226019 -800 0 -4.644684 -171.31108 
30.08 -1.2126507 171.42626 -800 0 -83.260564 66.885806 -800 0 
	-800 0 -1.0482096 165.08854 -800 0 -15.771237 -64.12719 
	-83.260564 66.885806 -800 0 -0.025674592 176.98173 -800 0 
	-800 0 -15.771237 -64.12719 -800 0 -4.2274275 -169.11295 
30.09 -1.1862748 170.95764 -800 0 -83.437553 66.847373 -800 0 
	-800 0 -1.020846 164.91475 -800 0 -15.817468 -67.788091 
	-83.437553 66.847373 -800 0 -0.025665771 176.98037 -800 0 
	-800 0 -15.817468 -67.788091 -800 0 -3.8035314 -167.65747 
30.1 -1.1627033 170.50868 -800 0 -83.60025 66.8392 -800 0 
	-800 0 -0.99494688 164.71357 -800 0 -15.903738 -71.185341 
	-83.60025 66.8392 -800 0 -0.025657082 176.97901 -800 0 
	-800 0 -15.903738 -71.185341 -800 0 -3.3992426 -166.80902 
30.11 -1.1441678 170.07457 -800 0 -83.753288 66.976347 -800 0 
	-800 0 -0.97085365 164.48962 -800 0 -16.022268 -74.336901 
	-83.753288 66.976347 -800 0 -0.02564841 176.97763 -800 0 
	-800 0 -16.022268 -74.336901 -800 0 -3.0282358 -166.40426 
30.12 -1.1272868 169.65737 -800 0 -83.893932 67.120937 -800 0 
	-800 0 -0.94915009 164.24915 -800 0 -16.16321 -77.221574 
	-83.893932 67.120937 -800 0 -0.025639912 176.97625 -800 0 
	-800 0 -16.16321 -77.221574 -800 0 -2.6958015 -166.3372 
30.13 -1.111838 169.2552 -800 0 -84.023413 67.269944 -800 0 
	-800 0 -0.92990104 163.99691 -800 0 -16.319855 -79.850902 
	-84.023413 67.269944 -800 0 -0.025631587 176.97487 -800 0 
	-800 0 -16.319855 -79.850902 -800 0 -2.4023232 -166.50723 
30.14 -1.0976371 168.86645 -800 0 -84.142822 67.420876 -800 0 
	-800 0 -0.91302325 163.73687 -800 0 -16.486705 -82.241217 
	-84.142822 67.420876 -800 0 -0.025623436 176.97349 -800 0 
	-800 0 -16.486705 -82.241217 -800 0 -2.14547 -166.8379 
30.15 -1.08453 168.48973 -800 0 -84.253126 67.571683 -800 0 
	-800 0 -0.89834585 163.47216 -800 0 -16.659378 -84.411334 
	-84.253126 67.571683 -800 0 -0.025615457 176.9721 -800 0 
	-800 0 -16.659378 -84.411334 -800 0 -1.9216892 -167.2731 
30.16 -1.072387 168.12385 -800 0 -84.355185 67.720676 -800 0 
	-800 0 -0.885655 163.20516 -800 0 -16.834468 -86.380883 
	-84.355185 67.720676 -800 0 -0.025607648 176.97071 -800 0 
	-800 0 -16.834468 -86.380883 -800 0 -1.7270699 -167.77259 
30.17 -1.0610983 167.76778 -800 0 -84.449772 67.866469 -800 0 
	-800 0 -0.87472395 162.93761 -800 0 -17.009382 -88.169208 
	-84.449772 67.866469 -800 0 -0.025600008 176.96932 -800 0 
	-800 0 -17.009382 -88.169208 -800 0 -1.5578014 -168.30805 
30.18 -1.05057 167.42063 -800 0 -84.537575 68.007929 -800 0 
	-800 0 -0.86533152 162.67076 -800 0 -17.182189 -89.794686 
	-84.537575 68.007929 -800 0 -0.025592536 176.96793 -800 0 
	-800 0 -17.182189 -89.794686 -800 0 -1.4103924 -168.85984 
30.19 -1.0407218 167.08161 -800 0 -84.619215 68.144133 -800 0 
	-800 0 -0.8572724 162.40547 -800 0 -17.351484 -91.274351 
	-84.619215 68.144133 -800 0 -0.025585228 176.96654 -800 0 
	-800 0 -17.351484 -91.274351 -800 0 -1.2817528 -169.41459 
30.2 -1.0314845 166.75002 -800 0 -84.695251 68.274335 -800 0 
	-800 0 -0.85036187 162.14228 -800 0 -17.516274 -92.623728 
	-84.695251 68.274335 -800 0 -0.025578083 176.96514 -800 0 
	-800 0 -17.516274 -92.623728 -800 0 -1.169203 -169.9634 
30.21 -1.0240725 166.42514 -800 0 -84.767007 68.470951 -800 0 
	-800 0 -0.84681288 161.8886 -800 0 -17.673312 -93.54478 
	-84.767007 68.470951 -800 0 -0.025570809 176.96374 -800 0 
	-800 0 -17.673312 -93.54478 -800 0 -1.0889924 -170.55036 
30.22 -1.0170464 166.10671 -800 0 -84.833923 68.657214 -800 0 
	-800 0 -0.84379404 161.63783 -800 0 -17.823146 -94.392921 
	-84.833923 68.657214 -800 0 -0.025563722 176.96234 -800 0 
	-800 0 -17.823146 -94.392921 -800 0 -1.0178201 -171.1082 
30.23 -1.0103739 165.79423 -800 0 -84.896433 68.833125 -800 0 
	-800 0 -0.84122759 161.38982 -800 0 -17.966006 -95.176135 
	-84.896433 68.833125 -800 0 -0.025556819 176.96093 -800 0 
	-800 0 -17.966006 -95.176135 -800 0 -0.95443297 -171.63848 
30.24 -1.004026 165.48723 -800 0 -84.95493 68.998724 -800 0 
	-800 0 -0.83904824 161.14445 -800 0 -18.102152 -95.901387 
	-84.95493 68.998724 -800 0 -0.025550098 176.95953 -800 0 
	-800 0 -18.102152 -95.901387 -800 0 -0.89778455 -172.14291 
30.25 -0.99797731 165.18532 -800 0 -85.009768 69.15409 -800 0 
	-800 0 -0.83720103 160.90157 -800 0 -18.231858 -96.574769 
	-85.009768 69.15409 -800 0 -0.025543555 176.95812 -800 0 
	-800 0 -18.231858 -96.574769 -800 0 -0.84699736 -172.62321 
30.26 -0.99220494 164.88811 -800 0 -85.061273 69.299329 -800 0 
	-800 0 -0.83563968 160.66102 -800 0 -18.355405 -97.201612 
	-85.061273 69.299329 -800 0 -0.025537186 176.95671 -800 0 
	-800 0 -18.355405 -97.201612 -800 0 -0.80133243 -173.08109 
30.27 -0.98668848 164.59529 -800 0 -85.109738 69.434569 -800 0 
	-800 0 -0.83432506 160.42268 -800 0 -18.473075 -97.786595 
	-85.109738 69.434569 -800 0 -0.025530989 176.9553 -800 0 
	-800 0 -18.473075 -97.786595 -800 0 -0.76016492 -173.51821 
30.28 -0.98140961 164.30656 -800 0 -85.155433 69.559959 -800 0 
	-800 0 -0.83322408 160.1864 -800 0 -18.585143 -98.333829 
	-85.155433 69.559959 -800 0 -0.025524959 176.95389 -800 0 
	-800 0 -18.585143 -98.333829 -800 0 -0.72296453 -173.93614 
30.29 -0.97635186 164.02166 -800 0 -85.198602 69.675663 -800 0 
	-800 0 -0.83230866 159.95206 -800 0 -18.691876 -98.846934 
	-85.198602 69.675663 -800 0 -0.025519095 176.95247 -800 0 
	-800 0 -18.691876 -98.846934 -800 0 -0.68927958 -174.33639 
30.3 -0.97150037 163.74034 -800 0 -85.239469 69.781857 -800 0 
	-800 0 -0.83155492 159.71954 -800 0 -18.793532 -99.329104 
	-85.239469 69.781857 -800 0 -0.025513391 176.95105 -800 0 
	-800 0 -18.793532 -99.329104 -800 0 -0.65872415 -174.72035 
30.31 -0.96761639 163.46206 -800 0 -85.27889 69.932259 -800 0 
	-800 0 -0.8298483 159.47767 -800 0 -18.909807 -99.916006 
	-85.27889 69.932259 -800 0 -0.025507092 176.94965 -800 0 
	-800 0 -18.909807 -99.916006 -800 0 -0.62934409 -175.12286 
30.32 -0.96387081 163.18697 -800 0 -85.316343 70.072682 -800 0 
	-800 0 -0.82835709 159.23806 -800 0 -19.01977 -100.46881 
	-85.316343 70.072682 -800 0 -0.02550096 176.94824 -800 0 
	-800 0 -19.01977 -100.46881 -800 0 -0.60288481 -175.50743 
30.33 -0.96025602 162.91488 -800 0 -85.35201 70.203405 -800 0 
	-800 0 -0.82705398 159.00055 -800 0 -19.123787 -100.99069 
	-85.35201 70.203405 -800 0 -0.025494991 176.94683 -800 0 
	-800 0 -19.123787 -100.99069 -800 0 -0.57902494 -175.87577 
30.34 -0.95676505 162.64563 -800 0 -85.386052 70.324701 -800 0 
	-800 0 -0.82591578 158.76501 -800 0 -19.222199 -101.48443 
	-85.386052 70.324701 -800 0 -0.025489181 176.94542 -800 0 
	-800 0 -19.222199 -101.48443 -800 0 -0.55749213 -176.22942 
30.35 -0.95339148 162.37905 -800 0 -85.41862 70.436836 -800 0 
	-800 0 -0.82492275 158.53129 -800 0 -19.315322 -101.95248 
	-85.41862 70.436836 -800 0 -0.025483529 176.944 -800 0 
	-800 0 -19.315322 -101.95248 -800 0 -0.53805529 -176.56983 
30.36 -0.95012942 162.11501 -800 0 -85.449854 70.540072 -800 0 
	-800 0 -0.82405801 158.29928 -800 0 -19.403449 -102.397 
	-85.449854 70.540072 -800 0 -0.025478029 176.94259 -800 0 
	-800 0 -19.403449 -102.397 -800 0 -0.52051829 -176.89831 
30.37 -0.94697346 161.85336 -800 0 -85.47988 70.63466 -800 0 
	-800 0 -0.82330709 158.06888 -800 0 -19.486853 -102.81989 
	-85.47988 70.63466 -800 0 -0.025472679 176.94117 -800 0 
	-800 0 -19.486853 -102.81989 -800 0 -0.50471493 -177.21609 
30.38 -0.94391859 161.594 -800 0 -85.508815 70.720847 -800 0 
	-800 0 -0.82265754 157.83998 -800 0 -19.565786 -103.22284 
	-85.508815 70.720847 -800 0 -0.025467475 176.93976 -800 0 
	-800 0 -19.565786 -103.22284 -800 0 -0.49050497 -177.52432 
30.39 -0.94096022 161.33681 -800 0 -85.536769 70.798874 -800 0 
	-800 0 -0.82209864 157.61249 -800 0 -19.640482 -103.60735 
	-85.536769 70.798874 -800 0 -0.025462414 176.93834 -800 0 
	-800 0 -19.640482 -103.60735 -800 0 -0.47777087 -177.82409 
30.4 -0.93809409 161.08169 -800 0 -85.56384 70.868971 -800 0 
	-800 0 -0.82162108 157.38632 -800 0 -19.71116 -103.97472 
	-85.56384 70.868971 -800 0 -0.025457493 176.93692 -800 0 
	-800 0 -19.71116 -103.97472 -800 0 -0.46641539 -178.11641 
30.41 -0.93587577 160.82786 -800 0 -85.591218 70.977959 -800 0 
	-800 0 -0.82151208 157.15734 -800 0 -19.778201 -104.29704 
	-85.591218 70.977959 -800 0 -0.025451156 176.93552 -800 0 
	-800 0 -19.778201 -104.29704 -800 0 -0.45627264 -178.40364 
30.42 -0.93372166 160.5759 -800 0 -85.617889 71.079424 -800 0 
	-800 0 -0.82144188 156.92968 -800 0 -19.840929 -104.6052 
	-85.617889 71.079424 -800 0 -0.025444949 176.93413 -800 0 
	-800 0 -19.840929 -104.6052 -800 0 -0.44740304 -178.68427 
30.43 -0.93162951 160.32574 -800 0 -85.643937 71.173591 -800 0 
	-800 0 -0.82140597 156.70327 -800 0 -19.899586 -104.90008 
	-85.643937 71.173591 -800 0 -0.025438869 176.93273 -800 0 
	-800 0 -19.899586 -104.90008 -800 0 -0.4397549 -178.95942 
30.44 -0.92959724 160.07731 -800 0 -85.669438 71.260679 -800 0 
	-800 0 -0.82140048 156.47802 -800 0 -19.954396 -105.18246 
	-85.669438 71.260679 -800 0 -0.025432915 176.93133 -800 0 
	-800 0 -19.954396 -105.18246 -800 0 -0.43329365 -179.23015 
30.45 -0.92762292 159.83052 -800 0 -85.694463 71.340897 -800 0 
	-800 0 -0.82142212 156.25386 -800 0 -20.005565 -105.45301 
	-85.694463 71.340897 -800 0 -0.025427082 176.92993 -800 0 
	-800 0 -20.005565 -105.45301 -800 0 -0.42800173 -179.49753 
30.46 -0.92570474 159.58531 -800 0 -85.719078 71.414448 -800 0 
	-800 0 -0.82146807 156.03074 -800 0 -20.053286 -105.71232 
	-85.719078 71.414448 -800 0 -0.025421368 176.92853 -800 0 
	-800 0 -20.053286 -105.71232 -800 0 -0.4238792 -179.76265 
30.47 -0.92384104 159.34162 -800 0 -85.743344 71.481525 -800 0 
	-800 0 -0.8215359 155.80859 -800 0 -20.097737 -105.96087 
	-85.743344 71.481525 -800 0 -0.025415771 176.92713 -800 0 
	-800 0 -20.097737 -105.96087 -800 0 -0.42094495 179.97337 
30.48 -0.92203026 159.0994 -800 0 -85.76732 71.542318 -800 0 
	-800 0 -0.82162355 155.58737 -800 0 -20.139085 -106.19908 
	-85.76732 71.542318 -800 0 -0.025410287 176.92573 -800 0 
	-800 0 -20.139085 -106.19908 -800 0 -0.41923878 179.70937 
30.49 -0.92027095 158.85858 -800 0 -85.791058 71.597008 -800 0 
	-800 0 -0.82172922 155.36702 -800 0 -20.177488 -106.42727 
	-85.791058 71.597008 -800 0 -0.025404914 176.92432 -800 0 
	-800 0 -20.177488 -106.42727 -800 0 -0.41882459 179.44409 
30.5 -0.91856179 158.61913 -800 0 -85.814608 71.64577 -800 0 
	-800 0 -0.82185139 155.14751 -800 0 -20.213095 -106.64572 
	-85.814608 71.64577 -800 0 -0.02539965 176.92292 -800 0 
	-800 0 -20.213095 -106.64572 -800 0 -0.41979483 179.17615 
30.51 -0.91736688 158.38068 -800 0 -85.839761 71.737904 -800 0 
	-800 0 -0.82218872 154.9359 -800 0 -20.240314 -106.82764 
	-85.839761 71.737904 -800 0 -0.025391739 176.92155 -800 0 
	-800 0 -20.240314 -106.82764 -800 0 -0.42519862 178.898 
30.52 -0.91620447 158.14348 -800 0 -85.864836 71.824398 -800 0 
	-800 0 -0.82254206 154.72487 -800 0 -20.265485 -107.00282 
	-85.864836 71.824398 -800 0 -0.025383921 176.92019 -800 0 
	-800 0 -20.265485 -107.00282 -800 0 -0.43211575 178.61356 
30.53 -0.91507423 157.9075 -800 0 -85.889875 71.905432 -800 0 
	-800 0 -0.822911 154.5144 -800 0 -20.288711 -107.17117 
	-85.889875 71.905432 -800 0 -0.025376193 176.91883 -800 0 
	-800 0 -20.288711 -107.17117 -800 0 -0.44078883 178.32087 
30.54 -0.91397588 157.67269 -800 0 -85.914919 71.981179 -800 0 
	-800 0 -0.82329519 154.30447 -800 0 -20.310093 -107.33255 
	-85.914919 71.981179 -800 0 -0.025368554 176.91746 -800 0 
	-800 0 -20.310093 -107.33255 -800 0 -0.4515333 178.01764 
30.55 -0.91290912 157.43901 -800 0 -85.940006 72.051809 -800 0 
	-800 0 -0.82369434 154.09506 -800 0 -20.329736 -107.48679 
	-85.940006 72.051809 -800 0 -0.025361001 176.91609 -800 0 
	-800 0 -20.329736 -107.48679 -800 0 -0.46476348 177.70115 
30.56 -0.91187369 157.20644 -800 0 -85.965173 72.117483 -800 0 
	-800 0 -0.82410818 153.88616 -800 0 -20.347748 -107.63367 
	-85.965173 72.117483 -800 0 -0.025353534 176.91473 -800 0 
	-800 0 -20.347748 -107.63367 -800 0 -0.48103052 177.36817 
30.57 -0.91086935 156.97494 -800 0 -85.990455 72.178359 -800 0 
	-800 0 -0.82453649 153.67774 -800 0 -20.364245 -107.77293 
	-85.990455 72.178359 -800 0 -0.025346149 176.91336 -800 0 
	-800 0 -20.364245 -107.77293 -800 0 -0.50107895 177.0148 
30.58 -0.90989586 156.74447 -800 0 -86.015883 72.23459 -800 0 
	-800 0 -0.82497909 153.46981 -800 0 -20.379349 -107.90428 
	-86.015883 72.23459 -800 0 -0.025338846 176.91199 -800 0 
	-800 0 -20.379349 -107.90428 -800 0 -0.52593278 176.63631 
30.59 -0.908953 156.51502 -800 0 -86.04149 72.286323 -800 0 
	-800 0 -0.82543581 153.26233 -800 0 -20.393195 -108.0274 
	-86.04149 72.286323 -800 0 -0.025331622 176.91061 -800 0 
	-800 0 -20.393195 -108.0274 -800 0 -0.55702965 176.22701 
30.6 -0.90804057 156.28654 -800 0 -86.067304 72.333703 -800 0 
	-800 0 -0.82590652 153.05531 -800 0 -20.405933 -108.14196 
	-86.067304 72.333703 -800 0 -0.025324476 176.90924 -800 0 
	-800 0 -20.405933 -108.14196 -800 0 -0.59643513 175.78017 
30.61 -0.90754213 156.05942 -800 0 -86.09492 72.425862 -800 0 
	-800 0 -0.82668872 152.84741 -800 0 -20.420183 -108.25735 
	-86.09492 72.425862 -800 0 -0.025312828 176.90793 -800 0 
	-800 0 -20.420183 -108.25735 -800 0 -0.64741532 175.30157 
30.62 -0.90706248 155.8332 -800 0 -86.122812 72.513872 -800 0 
	-800 0 -0.82748341 152.63995 -800 0 -20.433718 -108.36403 
	-86.122812 72.513872 -800 0 -0.025301244 176.90662 -800 0 
	-800 0 -20.433718 -108.36403 -800 0 -0.71437123 174.76977 
30.63 -0.90660197 155.60788 -800 0 -86.151006 72.597892 -800 0 
	-800 0 -0.82829065 152.43294 -800 0 -20.446754 -108.46169 
	-86.151006 72.597892 -800 0 -0.025289723 176.90531 -800 0 
	-800 0 -20.446754 -108.46169 -800 0 -0.80449669 174.17945 
30.64 -0.90616094 155.38341 -800 0 -86.17953 72.678079 -800 0 
	-800 0 -0.82911052 152.22637 -800 0 -20.459535 -108.55015 
	-86.17953 72.678079 -800 0 -0.025278264 176.904 -800 0 
	-800 0 -20.459535 -108.55015 -800 0 -0.9292576 173.53522 
30.65 -0.90573971 155.1598 -800 0 -86.208408 72.754587 -800 0 
	-800 0 -0.82994307 152.02023 -800 0 -20.472341 -108.62939 
	-86.208408 72.754587 -800 0 -0.025266866 176.90269 -800 0 
	-800 0 -20.472341 -108.62939 -800 0 -1.1070984 172.87236 
30.66 -0.90533855 154.93701 -800 0 -86.237667 72.827563 -800 0 
	-800 0 -0.83078837 151.81451 -800 0 -20.485487 -108.69963 
	-86.237667 72.827563 -800 0 -0.025255527 176.90137 -800 0 
	-800 0 -20.485487 -108.69963 -800 0 -1.3666181 172.31302 
30.67 -0.90495774 154.71503 -800 0 -86.267329 72.897155 -800 0 
	-800 0 -0.83164647 151.60919 -800 0 -20.499322 -108.76145 
	-86.267329 72.897155 -800 0 -0.025244248 176.90006 -800 0 
	-800 0 -20.499322 -108.76145 -800 0 -1.7440163 172.20786 
30.68 -0.90459751 154.49384 -800 0 -86.297419 72.963504 -800 0 
	-800 0 -0.83251743 151.40428 -800 0 -20.514222 -108.81587 
	-86.297419 72.963504 -800 0 -0.025233028 176.89874 -800 0 
	-800 0 -20.514222 -108.81587 -800 0 -2.2442568 173.39661 
30.69 -0.90425809 154.27342 -800 0 -86.32796 73.026752 -800 0 
	-800 0 -0.83340128 151.19977 -800 0 -20.530582 -108.86453 
	-86.32796 73.026752 -800 0 -0.025221864 176.89742 -800 0 
	-800 0 -20.530582 -108.86453 -800 0 -2.6971275 177.08647 
30.7 -0.90393966 154.05377 -800 0 -86.358974 73.087036 -800 0 
	-800 0 -0.83429808 150.99565 -800 0 -20.548788 -108.90978 
	-86.358974 73.087036 -800 0 -0.025210757 176.89611 -800 0 
	-800 0 -20.548788 -108.90978 -800 0 -2.6868209 -177.36561 
30.71 -0.90394757 153.83565 -800 0 -86.390347 73.187358 -800 0 
	-800 0 -0.83527219 150.79051 -800 0 -20.570006 -108.92707 
	-86.390347 73.187358 -800 0 -0.025192045 176.89487 -800 0 
	-800 0 -20.570006 -108.92707 -800 0 -2.1622594 -173.56486 
30.72 -0.90396966 153.61824 -800 0 -86.422217 73.284915 -800 0 
	-800 0 -0.83625151 150.58575 -800 0 -20.593568 -108.94948 
	-86.422217 73.284915 -800 0 -0.025173384 176.89364 -800 0 
	-800 0 -20.593568 -108.94948 -800 0 -1.5747584 -172.72684 
30.73 -0.90400636 153.40152 -800 0 -86.454605 73.379859 -800 0 
	-800 0 -0.83723646 150.38136 -800 0 -20.619618 -108.98185 
	-86.454605 73.379859 -800 0 -0.025154774 176.8924 -800 0 
	-800 0 -20.619618 -108.98185 -800 0 -1.1560946 -173.42608 
30.74 -0.90405807 153.18548 -800 0 -86.487532 73.472342 -800 0 
	-800 0 -0.83822741 150.17734 -800 0 -20.64811 -109.02961 
	-86.487532 73.472342 -800 0 -0.025136214 176.89117 -800 0 
	-800 0 -20.64811 -109.02961 -800 0 -0.89395661 -174.55189 
30.75 -0.90412516 152.9701 -800 0 -86.52102 73.562511 -800 0 
	-800 0 -0.83922472 149.97367 -800 0 -20.678759 -109.09845 
	-86.52102 73.562511 -800 0 -0.025117705 176.88993 -800 0 
	-800 0 -20.678759 -109.09845 -800 0 -0.73217416 -175.67906 
30.76 -0.90420796 152.75537 -800 0 -86.55509 73.650515 -800 0 
	-800 0 -0.8402287 149.77036 -800 0 -20.711018 -109.19376 
	-86.55509 73.650515 -800 0 -0.025099246 176.88869 -800 0 
	-800 0 -20.711018 -109.19376 -800 0 -0.62964278 -176.69261 
30.77 -0.90430675 152.54129 -800 0 -86.589765 73.736499 -800 0 
	-800 0 -0.84123965 149.56739 -800 0 -20.744081 -109.31997 
	-86.589765 73.736499 -800 0 -0.025080836 176.88745 -800 0 
	-800 0 -20.744081 -109.31997 -800 0 -0.56182594 -177.57946 
30.78 -0.90442182 152.32784 -800 0 -86.625064 73.820607 -800 0 
	-800 0 -0.84225782 149.36477 -800 0 -20.776933 -109.47994 
	-86.625064 73.820607 -800 0 -0.025062475 176.88621 -800 0 
	-800 0 -20.776933 -109.47994 -800 0 -0.51460083 -178.35372 
30.79 -0.90455338 152.11502 -800 0 -86.661009 73.902984 -800 0 
	-800 0 -0.84328347 149.16249 -800 0 -20.808448 -109.67448 
	-86.661009 73.902984 -800 0 -0.025044163 176.88497 -800 0 
	-800 0 -20.808448 -109.67448 -800 0 -0.4797906 -179.03344 
30.8 -0.90470165 151.90281 -800 0 -86.697622 73.98377 -800 0 
	-800 0 -0.84431682 148.96055 -800 0 -20.8375 -109.90214 
	-86.697622 73.98377 -800 0 -0.025025901 176.88373 -800 0 
	-800 0 -20.8375 -109.90214 -800 0 -0.45260369 -179.63444 
30.81 -0.90511513 151.69237 -800 0 -86.731997 74.101949 -800 0 
	-800 0 -0.84546077 148.75726 -800 0 -20.86222 -110.17911 
	-86.731997 74.101949 -800 0 -0.024994314 176.88259 -800 0 
	-800 0 -20.86222 -110.17911 -800 0 -0.43012323 179.83128 
30.82 -0.90554122 151.4825 -800 0 -86.767007 74.218548 -800 0 
	-800 0 -0.84661561 148.55429 -800 0 -20.88271 -110.48022 
	-86.767007 74.218548 -800 0 -0.024962776 176.88145 -800 0 
	-800 0 -20.88271 -110.48022 -800 0 -0.41080152 179.35294 
30.83 -0.90598024 151.27319 -800 0 -86.802673 74.333724 -800 0 
	-800 0 -0.84778139 148.35165 -800 0 -20.898465 -110.79947 
	-86.802673 74.333724 -800 0 -0.024931287 176.88031 -800 0 
	-800 0 -20.898465 -110.79947 -800 0 -0.3936858 178.92247 
30.84 -0.90643244 151.06444 -800 0 -86.839015 74.447634 -800 0 
	-800 0 -0.84895811 148.14932 -800 0 -20.909262 -111.13064 
	-86.839015 74.447634 -800 0 -0.024899848 176.87917 -800 0 
	-800 0 -20.909262 -111.13064 -800 0 -0.3782389 178.53316 
30.85 -0.90689804 150.85624 -800 0 -86.876054 74.560436 -800 0 
	-800 0 -0.8501458 147.9473 -800 0 -20.915131 -111.46784 
	-86.876054 74.560436 -800 0 -0.024868457 176.87803 -800 0 
	-800 0 -20.915131 -111.46784 -800 0 -0.36416284 178.17929 
30.86 -0.90737724 150.64857 -800 0 -86.91381 74.672287 -800 0 
	-800 0 -0.85134446 147.7456 -800 0 -20.916298 -111.80597 
	-86.91381 74.672287 -800 0 -0.024837116 176.87689 -800 0 
	-800 0 -20.916298 -111.80597 -800 0 -0.35129052 177.85591 
30.87 -0.90787021 150.44144 -800 0 -86.952306 74.783345 -800 0 
	-800 0 -0.85255406 147.5442 -800 0 -20.913122 -112.14091 
	-86.952306 74.783345 -800 0 -0.024805823 176.87575 -800 0 
	-800 0 -20.913122 -112.14091 -800 0 -0.33952115 177.55869 
30.88 -0.90837708 150.23484 -800 0 -86.991561 74.893767 -800 0 
	-800 0 -0.85377459 147.3431 -800 0 -20.906038 -112.46956 
	-86.991561 74.893767 -800 0 -0.024774581 176.87461 -800 0 
	-800 0 -20.906038 -112.46956 -800 0 -0.32878363 177.28385 
30.89 -0.90889797 150.02876 -800 0 -87.0316 75.003713 -800 0 
	-800 0 -0.85500603 147.14231 -800 0 -20.895503 -112.78977 
	-87.0316 75.003713 -800 0 -0.024743387 176.87346 -800 0 
	-800 0 -20.895503 -112.78977 -800 0 -0.31901745 177.02812 
30.9 -0.90943295 149.82319 -800 0 -87.072443 75.113343 -800 0 
	-800 0 -0.85624832 146.94181 -800 0 -20.881963 -113.10021 
	-87.072443 75.113343 -800 0 -0.024712244 176.87232 -800 0 
	-800 0 -20.881963 -113.10021 -800 0 -0.31016386 176.78867 
30.91 -0.91019014 149.61952 -800 0 -87.105617 75.231917 -800 0 
	-800 0 -0.85751925 146.74379 -800 0 -20.862172 -113.38471 
	-87.105617 75.231917 -800 0 -0.024551611 176.87169 -800 0 
	-800 0 -20.862172 -113.38471 -800 0 -0.30369178 176.56099 
30.92 -0.910959 149.41634 -800 0 -87.139588 75.350317 -800 0 
	-800 0 -0.85880047 146.54603 -800 0 -20.840205 -113.65942 
	-87.139588 75.350317 -800 0 -0.024390826 176.87106 -800 0 
	-800 0 -20.840205 -113.65942 -800 0 -0.29797439 176.34511 
30.93 -0.91173967 149.21363 -800 0 -87.174376 75.468708 -800 0 
	-800 0 -0.86009198 146.34852 -800 0 -20.81638 -113.92445 
	-87.174376 75.468708 -800 0 -0.024229889 176.87044 -800 0 
	-800 0 -20.81638 -113.92445 -800 0 -0.29295347 176.13925 
30.94 -0.9125323 149.0114 -800 0 -87.209996 75.587257 -800 0 
	-800 0 -0.86139381 146.15126 -800 0 -20.790967 -114.18018 
	-87.209996 75.587257 -800 0 -0.024068802 176.86981 -800 0 
	-800 0 -20.790967 -114.18018 -800 0 -0.28857117 175.9419 
30.95 -0.91333699 148.80963 -800 0 -87.246469 75.706135 -800 0 
	-800 0 -0.86270596 145.95425 -800 0 -20.764187 -114.42711 
	-87.246469 75.706135 -800 0 -0.023907564 176.86919 -800 0 
	-800 0 -20.764187 -114.42711 -800 0 -0.28477136 175.75179 
30.96 -0.91415385 148.60833 -800 0 -87.283814 75.825518 -800 0 
	-800 0 -0.86402841 145.75747 -800 0 -20.736224 -114.66585 
	-87.283814 75.825518 -800 0 -0.023746178 176.86856 -800 0 
	-800 0 -20.736224 -114.66585 -800 0 -0.28150065 175.56782 
30.97 -0.91498299 148.40748 -800 0 -87.32205 75.94559 -800 0 
	-800 0 -0.86536115 145.56094 -800 0 -20.707225 -114.89702 
	-87.32205 75.94559 -800 0 -0.023584642 176.86794 -800 0 
	-800 0 -20.707225 -114.89702 -800 0 -0.27870904 175.38908 
30.98 -0.91582452 148.20708 -800 0 -87.361199 76.066541 -800 0 
	-800 0 -0.86670414 145.36465 -800 0 -20.67731 -115.12126 
	-87.361199 76.066541 -800 0 -0.02342296 176.86732 -800 0 
	-800 0 -20.67731 -115.12126 -800 0 -0.27635032 175.21478 
30.99 -0.91667857 148.00713 -800 0 -87.401283 76.188572 -800 0 
	-800 0 -0.86805735 145.16859 -800 0 -20.646573 -115.33916 
	-87.401283 76.188572 -800 0 -0.023261131 176.8667 -800 0 
	-800 0 -20.646573 -115.33916 -800 0 -0.27438222 175.04427 
31 -0.91754527 147.80762 -800 0 -87.442322 76.311894 -800 0 
	-800 0 -0.86942074 144.97276 -800 0 -20.615088 -115.55131 
	-87.442322 76.311894 -800 0 -0.023099157 176.86608 -800 0 
	-800 0 -20.615088 -115.55131 -800 0 -0.27276639 174.87695 
31.01 -0.91857117 147.60948 -800 0 -87.472102 76.435446 -800 0 
	-800 0 -0.87149143 144.77767 -800 0 -20.589258 -115.78745 
	-87.472102 76.435446 -800 0 -0.022750964 176.86605 -800 0 
	-800 0 -20.589258 -115.78745 -800 0 -0.27118713 174.71514 
31.02 -0.91960886 147.41177 -800 0 -87.502851 76.5603 -800 0 
	-800 0 -0.87357696 144.58283 -800 0 -20.562826 -116.01942 
	-87.502851 76.5603 -800 0 -0.022402291 176.86603 -800 0 
	-800 0 -20.562826 -116.01942 -800 0 -0.26990552 174.55582 
31.03 -0.92065866 147.21448 -800 0 -87.534579 76.686672 -800 0 
	-800 0 -0.87567737 144.38826 -800 0 -20.535827 -116.24767 
	-87.534579 76.686672 -800 0 -0.022053135 176.866 -800 0 
	-800 0 -20.535827 -116.24767 -800 0 -0.26889439 174.39864 
31.04 -0.92172087 147.01761 -800 0 -87.567292 76.81479 -800 0 
	-800 0 -0.87779273 144.19394 -800 0 -20.508285 -116.47262 
	-87.567292 76.81479 -800 0 -0.021703496 176.86598 -800 0 
	-800 0 -20.508285 -116.47262 -800 0 -0.26812958 174.24329 
31.05 -0.92279583 146.82116 -800 0 -87.600995 76.944885 -800 0 
	-800 0 -0.8799231 143.99988 -800 0 -20.480222 -116.69463 
	-87.600995 76.944885 -800 0 -0.021353374 176.86596 -800 0 
	-800 0 -20.480222 -116.69463 -800 0 -0.26758967 174.08948 
31.06 -0.92388383 146.62513 -800 0 -87.635685 77.077188 -800 0 
	-800 0 -0.88206851 143.80606 -800 0 -20.45165 -116.91405 
	-87.635685 77.077188 -800 0 -0.021002769 176.86594 -800 0 
	-800 0 -20.45165 -116.91405 -800 0 -0.26725569 173.93698 
31.07 -0.92498504 146.42952 -800 0 -87.671357 77.21192 -800 0 
	-800 0 -0.88422903 143.6125 -800 0 -20.422579 -117.13117 
	-87.671357 77.21192 -800 0 -0.020651679 176.86592 -800 0 
	-800 0 -20.422579 -117.13117 -800 0 -0.26711086 173.78555 
31.08 -0.92609942 146.23434 -800 0 -87.707996 77.349266 -800 0 
	-800 0 -0.88640469 143.41917 -800 0 -20.393017 -117.34626 
	-87.707996 77.349266 -800 0 -0.020300106 176.8659 -800 0 
	-800 0 -20.393017 -117.34626 -800 0 -0.26714037 173.63502 
31.09 -0.92722651 146.03959 -800 0 -87.745585 77.489352 -800 0 
	-800 0 -0.88859553 143.22609 -800 0 -20.362967 -117.55958 
	-87.745585 77.489352 -800 0 -0.019948048 176.86588 -800 0 
	-800 0 -20.362967 -117.55958 -800 0 -0.26733115 173.4852 
31.1 -0.92836526 145.84528 -800 0 -87.784101 77.632209 -800 0 
	-800 0 -0.89080159 143.03325 -800 0 -20.332431 -117.77134 
	-87.784101 77.632209 -800 0 -0.019595507 176.86587 -800 0 
	-800 0 -20.332431 -117.77134 -800 0 -0.26767168 173.33595 
31.11 -0.9296095 145.65182 -800 0 -87.810675 77.796125 -800 0 
	-800 0 -0.89226043 142.83583 -800 0 -20.289849 -117.97053 
	-87.810675 77.796125 -800 0 -0.019212646 176.86562 -800 0 
	-800 0 -20.289849 -117.97053 -800 0 -0.2699314 173.18556 
31.12 -0.93085675 145.4588 -800 0 -87.838238 77.961236 -800 0 
	-800 0 -0.89372732 142.63855 -800 0 -20.246623 -118.16804 
	-87.838238 77.961236 -800 0 -0.018829169 176.86538 -800 0 
	-800 0 -20.246623 -118.16804 -800 0 -0.27233134 173.03507 
31.13 -0.93210383 145.2662 -800 0 -87.866849 78.127283 -800 0 
	-800 0 -0.89520215 142.44142 -800 0 -20.202752 -118.36402 
	-87.866849 78.127283 -800 0 -0.018445078 176.86514 -800 0 
	-800 0 -20.202752 -118.36402 -800 0 -0.2748638 172.88433 
31.14 -0.93334824 145.074 -800 0 -87.8966 78.294148 -800 0 
	-800 0 -0.89668477 142.24442 -800 0 -20.158232 -118.55861 
	-87.8966 78.294148 -800 0 -0.018060371 176.86489 -800 0 
	-800 0 -20.158232 -118.55861 -800 0 -0.27752202 172.73323 
31.15 -0.9345888 144.88218 -800 0 -87.927597 78.461938 -800 0 
	-800 0 -0.89817506 142.04754 -800 0 -20.113061 -118.75193 
	-87.927597 78.461938 -800 0 -0.017675048 176.86465 -800 0 
	-800 0 -20.113061 -118.75193 -800 0 -0.28030008 172.58165 
31.16 -0.93582581 144.6907 -800 0 -87.959946 78.631011 -800 0 
	-800 0 -0.89967285 141.85078 -800 0 -20.067234 -118.94407 
	-87.959946 78.631011 -800 0 -0.01728911 176.8644 -800 0 
	-800 0 -20.067234 -118.94407 -800 0 -0.28319274 172.42949 
31.17 -0.93706076 144.49954 -800 0 -87.993734 78.801917 -800 0 
	-800 0 -0.901178 141.65413 -800 0 -20.020747 -119.13514 
	-87.993734 78.801917 -800 0 -0.016902556 176.86415 -800 0 
	-800 0 -20.020747 -119.13514 -800 0 -0.28619543 172.27666 
31.18 -0.93829579 144.30869 -800 0 -88.029022 78.975302 -800 0 
	-800 0 -0.90269033 141.45759 -800 0 -19.973596 -119.32523 
	-88.029022 78.975302 -800 0 -0.016515388 176.8639 -800 0 
	-800 0 -19.973596 -119.32523 -800 0 -0.28930411 172.12304 
31.19 -0.93953308 144.11814 -800 0 -88.065848 79.151822 -800 0 
	-800 0 -0.90420966 141.26115 -800 0 -19.925776 -119.51443 
	-88.065848 79.151822 -800 0 -0.016127604 176.86365 -800 0 
	-800 0 -19.925776 -119.51443 -800 0 -0.29251528 171.96856 
31.2 -0.94077448 143.92788 -800 0 -88.104231 79.332082 -800 0 
	-800 0 -0.90573579 141.0648 -800 0 -19.877282 -119.7028 
	-88.104231 79.332082 -800 0 -0.015739205 176.86341 -800 0 
	-800 0 -19.877282 -119.7028 -800 0 -0.29582585 171.81311 
31.21 -0.94212849 143.73819 -800 0 -88.135097 79.541814 -800 0 
	-800 0 -0.90775166 140.87011 -800 0 -19.83366 -119.8898 
	-88.135097 79.541814 -800 0 -0.01551176 176.8622 -800 0 
	-800 0 -19.83366 -119.8898 -800 0 -0.29835924 171.64945 
31.22 -0.9434897 143.54877 -800 0 -88.167561 79.757101 -800 0 
	-800 0 -0.90977639 140.67554 -800 0 -19.789353 -120.07638 
	-88.167561 79.757101 -800 0 -0.015283983 176.861 -800 0 
	-800 0 -19.789353 -120.07638 -800 0 -0.30096599 171.48485 
31.23 -0.94485843 143.35965 -800 0 -88.201617 79.978389 -800 0 
	-800 0 -0.91180987 140.48107 -800 0 -19.744357 -120.2626 
	-88.201617 79.978389 -800 0 -0.015055868 176.8598 -800 0 
	-800 0 -19.744357 -120.2626 -800 0 -0.30364393 171.31922 
31.24 -0.94623466 143.1708 -800 0 -88.237264 80.206099 -800 0 
	-800 0 -0.91385197 140.28671 -800 0 -19.698668 -120.44853 
	-88.237264 80.206099 -800 0 -0.014827411 176.8586 -800 0 
	-800 0 -19.698668 -120.44853 -800 0 -0.30639113 171.15249 
31.25 -0.9476182 142.98224 -800 0 -88.274508 80.440649 -800 0 
	-800 0 -0.91590254 140.09244 -800 0 -19.652281 -120.63422 
	-88.274508 80.440649 -800 0 -0.014598603 176.85739 -800 0 
	-800 0 -19.652281 -120.63422 -800 0 -0.30920593 170.98458 
31.26 -0.94900876 142.79397 -800 0 -88.31336 80.682467 -800 0 
	-800 0 -0.91796145 139.89825 -800 0 -19.605191 -120.81972 
	-88.31336 80.682467 -800 0 -0.01436944 176.85618 -800 0 
	-800 0 -19.605191 -120.81972 -800 0 -0.31208686 170.8154 
31.27 -0.95040599 142.60597 -800 0 -88.353832 80.932004 -800 0 
	-800 0 -0.92002853 139.70415 -800 0 -19.557393 -121.0051 
	-88.353832 80.932004 -800 0 -0.014139912 176.85498 -800 0 
	-800 0 -19.557393 -121.0051 -800 0 -0.3150326 170.64488 
31.28 -0.95180956 142.41825 -800 0 -88.395941 81.189738 -800 0 
	-800 0 -0.92210364 139.51012 -800 0 -19.508882 -121.19041 
	-88.395941 81.189738 -800 0 -0.013910011 176.85377 -800 0 
	-800 0 -19.508882 -121.19041 -800 0 -0.31804203 170.47295 
31.29 -0.95321912 142.2308 -800 0 -88.439707 81.456177 -800 0 
	-800 0 -0.92418662 139.31615 -800 0 -19.459652 -121.37569 
	-88.439707 81.456177 -800 0 -0.013679729 176.85256 -800 0 
	-800 0 -19.459652 -121.37569 -800 0 -0.32111419 170.29951 
31.3 -0.95463436 142.04362 -800 0 -88.485148 81.731866 -800 0 
	-800 0 -0.92627734 139.12224 -800 0 -19.409697 -121.561 
	-88.485148 81.731866 -800 0 -0.013449055 176.85135 -800 0 
	-800 0 -19.409697 -121.561 -800 0 -0.32424825 170.12451 
31.31 -0.95619711 141.85689 -800 0 -88.530194 82.050321 -800 0 
	-800 0 -0.92873749 138.92744 -800 0 -19.363354 -121.77266 
	-88.530194 82.050321 -800 0 -0.013388762 176.84964 -800 0 
	-800 0 -19.363354 -121.77266 -800 0 -0.32872638 169.95838 
31.32 -0.95776595 141.6704 -800 0 -88.576692 82.380943 -800 0 
	-800 0 -0.93121089 138.73271 -800 0 -19.316307 -121.98543 
	-88.576692 82.380943 -800 0 -0.013328323 176.84794 -800 0 
	-800 0 -19.316307 -121.98543 -800 0 -0.33329706 169.79066 
31.33 -0.95934069 141.48415 -800 0 -88.624643 82.724383 -800 0 
	-800 0 -0.9336977 138.53804 -800 0 -19.268548 -122.19937 
	-88.624643 82.724383 -800 0 -0.013267728 176.84623 -800 0 
	-800 0 -19.268548 -122.19937 -800 0 -0.3379615 169.6213 
31.34 -0.9609212 141.29812 -800 0 -88.67405 83.081328 -800 0 
	-800 0 -0.9361981 138.34344 -800 0 -19.220069 -122.41451 
	-88.67405 83.081328 -800 0 -0.013206972 176.84453 -800 0 
	-800 0 -19.220069 -122.41451 -800 0 -0.34272113 169.45022 
31.35 -0.96250736 141.11232 -800 0 -88.72491 83.452502 -800 0 
	-800 0 -0.93871231 138.14888 -800 0 -19.17086 -122.63091 
	-88.72491 83.452502 -800 0 -0.013146046 176.84282 -800 0 
	-800 0 -19.17086 -122.63091 -800 0 -0.34757752 169.27735 
31.36 -0.96409907 140.92672 -800 0 -88.77722 83.838669 -800 0 
	-800 0 -0.94124058 137.95438 -800 0 -19.120915 -122.84861 
	-88.77722 83.838669 -800 0 -0.013084941 176.84111 -800 0 
	-800 0 -19.120915 -122.84861 -800 0 -0.35253244 169.10261 
31.37 -0.96569629 140.74133 -800 0 -88.830971 84.240633 -800 0 
	-800 0 -0.94378318 137.75991 -800 0 -19.070222 -123.06765 
	-88.830971 84.240633 -800 0 -0.01302365 176.8394 -800 0 
	-800 0 -19.070222 -123.06765 -800 0 -0.35758785 168.92595 
31.38 -0.96729896 140.55613 -800 0 -88.886152 84.659236 -800 0 
	-800 0 -0.94634043 137.56547 -800 0 -19.018773 -123.28808 
	-88.886152 84.659236 -800 0 -0.012962162 176.83768 -800 0 
	-800 0 -19.018773 -123.28808 -800 0 -0.36274589 168.74728 
31.39 -0.96890708 140.37112 -800 0 -88.942748 85.095366 -800 0 
	-800 0 -0.94891269 137.37106 -800 0 -18.966558 -123.50993 
	-88.942748 85.095366 -800 0 -0.01290047 176.83597 -800 0 
	-800 0 -18.966558 -123.50993 -800 0 -0.3680089 168.56653 
31.4 -0.97052067 140.1863 -800 0 -89.000737 85.549952 -800 0 
	-800 0 -0.95150037 137.17666 -800 0 -18.913567 -123.73326 
	-89.000737 85.549952 -800 0 -0.012838563 176.83425 -800 0 
	-800 0 -18.913567 -123.73326 -800 0 -0.37337943 168.38364 
31.41 -0.97232311 140.00174 -800 0 -89.061056 86.077603 -800 0 
	-800 0 -0.95379833 136.98139 -800 0 -18.854052 -123.95793 
	-89.061056 86.077603 -800 0 -0.012848111 176.83277 -800 0 
	-800 0 -18.854052 -123.95793 -800 0 -0.37898844 168.196 
31.42 -0.97413351 139.81732 -800 0 -89.122351 86.627472 -800 0 
	-800 0 -0.9561115 136.78607 -800 0 -18.793765 -124.18344 
	-89.122351 86.627472 -800 0 -0.01285763 176.83128 -800 0 
	-800 0 -18.793765 -124.18344 -800 0 -0.38468993 168.00596 
31.43 -0.9759521 139.63303 -800 0 -89.184562 87.200631 -800 0 
	-800 0 -0.95844029 136.59071 -800 0 -18.732693 -124.40983 
	-89.184562 87.200631 -800 0 -0.012867117 176.82979 -800 0 
	-800 0 -18.732693 -124.40983 -800 0 -0.39048666 167.81345 
31.44 -0.9777791 139.44887 -800 0 -89.247621 87.798197 -800 0 
	-800 0 -0.96078512 136.39528 -800 0 -18.670829 -124.63715 
	-89.247621 87.798197 -800 0 -0.012876569 176.8283 -800 0 
	-800 0 -18.670829 -124.63715 -800 0 -0.3963816 167.61838 
31.45 -0.97961479 139.26481 -800 0 -89.311452 88.421327 -800 0 
	-800 0 -0.96314648 136.19979 -800 0 -18.608161 -124.86541 
	-89.311452 88.421327 -800 0 -0.012885981 176.8268 -800 0 
	-800 0 -18.608161 -124.86541 -800 0 -0.4023779 167.42066 
31.46 -0.98145947 139.08086 -800 0 -89.375965 89.071221 -800 0 
	-800 0 -0.96552492 136.00422 -800 0 -18.544679 -125.09468 
	-89.375965 89.071221 -800 0 -0.012895351 176.82531 -800 0 
	-800 0 -18.544679 -125.09468 -800 0 -0.40847889 167.2202 
31.47 -0.98331347 138.897 -800 0 -89.441059 89.749117 -800 0 
	-800 0 -0.96792104 135.80856 -800 0 -18.480374 -125.32499 
	-89.441059 89.749117 -800 0 -0.012904675 176.82381 -800 0 
	-800 0 -18.480374 -125.32499 -800 0 -0.41468817 167.01692 
31.48 -0.98517716 138.71323 -800 0 -89.506619 90.456289 -800 0 
	-800 0 -0.9703355 135.6128 -800 0 -18.415233 -125.55637 
	-89.506619 90.456289 -800 0 -0.01291395 176.82231 -800 0 
	-800 0 -18.415233 -125.55637 -800 0 -0.42100949 166.81073 
31.49 -0.98705094 138.52952 -800 0 -89.572516 91.194048 -800 0 
	-800 0 -0.97276902 135.41694 -800 0 -18.349248 -125.78887 
	-89.572516 91.194048 -800 0 -0.012923175 176.82081 -800 0 
	-800 0 -18.349248 -125.78887 -800 0 -0.42744684 166.60152 
31.5 -0.98893522 138.34588 -800 0 -89.638606 91.963734 -800 0 
	-800 0 -0.97522237 135.22095 -800 0 -18.282408 -126.02252 
	-89.638606 91.963734 -800 0 -0.012932346 176.81931 -800 0 
	-800 0 -18.282408 -126.02252 -800 0 -0.43400441 166.3892 
31.51 -0.99106615 138.16266 -800 0 -89.70157 92.81876 -800 0 
	-800 0 -0.97800911 135.02527 -800 0 -18.214523 -126.26486 
	-89.70157 92.81876 -800 0 -0.012979269 176.81802 -800 0 
	-800 0 -18.214523 -126.26486 -800 0 -0.44182971 166.17257 
31.52 -0.99321181 137.97946 -800 0 -89.76394 93.70911 -800 0 
	-800 0 -0.98082151 134.82943 -800 0 -18.145746 -126.5089 
	-89.76394 93.70911 -800 0 -0.013026312 176.81673 -800 0 
	-800 0 -18.145746 -126.5089 -800 0 -0.44980812 165.9525 
31.53 -0.9953729 137.79627 -800 0 -89.825485 94.636096 -800 0 
	-800 0 -0.98366068 134.63343 -800 0 -18.076064 -126.75469 
	-89.825485 94.636096 -800 0 -0.013073475 176.81544 -800 0 
	-800 0 -18.076064 -126.75469 -800 0 -0.45794564 165.72887 
31.54 -0.99755018 137.61308 -800 0 -89.885953 95.601015 -800 0 
	-800 0 -0.98652783 134.43726 -800 0 -18.005467 -127.00228 
	-89.885953 95.601015 -800 0 -0.013120759 176.81415 -800 0 
	-800 0 -18.005467 -127.00228 -800 0 -0.46624854 165.50157 
31.55 -0.99974446 137.42988 -800 0 -89.945068 96.605138 -800 0 
	-800 0 -0.98942423 134.2409 -800 0 -17.933942 -127.25172 
	-89.945068 96.605138 -800 0 -0.013168168 176.81285 -800 0 
	-800 0 -17.933942 -127.25172 -800 0 -0.47472344 165.27047 
31.56 -1.0019566 137.24665 -800 0 -90.002528 97.649693 -800 0 
	-800 0 -0.99235123 134.04434 -800 0 -17.861477 -127.50309 
	-90.002528 97.649693 -800 0 -0.013215702 176.81156 -800 0 
	-800 0 -17.861477 -127.50309 -800 0 -0.48337703 165.03545 
31.57 -1.0041875 137.06338 -800 0 -90.058001 98.735847 -800 0 
	-800 0 -0.99531026 133.84758 -800 0 -17.78806 -127.75642 
	-90.058001 98.735847 -800 0 -0.013263365 176.81026 -800 0 
	-800 0 -17.78806 -127.75642 -800 0 -0.49221697 164.79637 
31.58 -1.0064381 136.88006 -800 0 -90.11113 99.864688 -800 0 
	-800 0 -0.99830283 133.65059 -800 0 -17.713679 -128.01179 
	-90.11113 99.864688 -800 0 -0.013311162 176.80895 -800 0 
	-800 0 -17.713679 -128.01179 -800 0 -0.50125088 164.55309 
31.59 -1.0087095 136.69667 -800 0 -90.161528 101.0372 -800 0 
	-800 0 -1.0013306 133.45335 -800 0 -17.63832 -128.26926 
	-90.161528 101.0372 -800 0 -0.013359096 176.80765 -800 0 
	-800 0 -17.63832 -128.26926 -800 0 -0.51048675 164.30549 
31.6 -1.0110028 136.5132 -800 0 -90.208778 102.25425 -800 0 
	-800 0 -1.0043951 133.25587 -800 0 -17.561972 -128.52891 
	-90.208778 102.25425 -800 0 -0.013407173 176.80634 -800 0 
	-800 0 -17.561972 -128.52891 -800 0 -0.51993295 164.05339 
31.61 -1.0135862 136.33038 -800 0 -90.242969 103.53066 -800 0 
	-800 0 -1.0081245 133.05712 -800 0 -17.484977 -128.82381 
	-90.242969 103.53066 -800 0 -0.01345924 176.80513 -800 0 
	-800 0 -17.484977 -128.82381 -800 0 -0.53077616 163.79837 
31.62 -1.0161978 136.14745 -800 0 -90.272661 104.85016 -800 0 
	-800 0 -1.0119076 132.85808 -800 0 -17.406951 -129.12169 
	-90.272661 104.85016 -800 0 -0.013511484 176.80391 -800 0 
	-800 0 -17.406951 -129.12169 -800 0 -0.54189269 163.53861 
31.63 -1.0188389 135.9644 -800 0 -90.297358 106.21274 -800 0 
	-800 0 -1.0157469 132.65876 -800 0 -17.327879 -129.42264 
	-90.297358 106.21274 -800 0 -0.013563908 176.80269 -800 0 
	-800 0 -17.327879 -129.42264 -800 0 -0.55329492 163.27394 
31.64 -1.0215112 135.78122 -800 0 -90.316547 107.6181 -800 0 
	-800 0 -1.0196451 132.45913 -800 0 -17.247747 -129.72676 
	-90.316547 107.6181 -800 0 -0.013616519 176.80147 -800 0 
	-800 0 -17.247747 -129.72676 -800 0 -0.56499582 163.00419 
31.65 -1.0242164 135.59789 -800 0 -90.329696 109.06567 -800 0 
	-800 0 -1.0236048 132.25918 -800 0 -17.166541 -130.03415 
	-90.329696 109.06567 -800 0 -0.013669322 176.80025 -800 0 
	-800 0 -17.166541 -130.03415 -800 0 -0.57700909 162.72917 
31.66 -1.0269562 135.41439 -800 0 -90.336259 110.55457 -800 0 
	-800 0 -1.027629 132.05889 -800 0 -17.084246 -130.34493 
	-90.336259 110.55457 -800 0 -0.013722323 176.79902 -800 0 
	-800 0 -17.084246 -130.34493 -800 0 -0.58934901 162.4487 
31.67 -1.0297325 135.23072 -800 0 -90.335685 112.08358 -800 0 
	-800 0 -1.0317206 131.85824 -800 0 -17.000848 -130.65922 
	-90.335685 112.08358 -800 0 -0.013775531 176.79779 -800 0 
	-800 0 -17.000848 -130.65922 -800 0 -0.60203105 162.16257 
31.68 -1.0325474 135.04684 -800 0 -90.32742 113.65111 -800 0 
	-800 0 -1.0358829 131.65723 -800 0 -16.916331 -130.97712 
	-90.32742 113.65111 -800 0 -0.013828954 176.79656 -800 0 
	-800 0 -16.916331 -130.97712 -800 0 -0.61507135 161.87059 
31.69 -1.0354029 134.86275 -800 0 -90.310912 115.25522 -800 0 
	-800 0 -1.0401194 131.45582 -800 0 -16.830679 -131.29878 
	-90.310912 115.25522 -800 0 -0.013882602 176.79532 -800 0 
	-800 0 -16.830679 -131.29878 -800 0 -0.62848702 161.57252 
31.7 -1.0383013 134.67843 -800 0 -90.285624 116.89357 -800 0 
	-800 0 -1.0444335 131.25402 -800 0 -16.743877 -131.62434 
	-90.285624 116.89357 -800 0 -0.013936486 176.79408 -800 0 
	-800 0 -16.743877 -131.62434 -800 0 -0.64229611 161.26815 
31.71 -1.0415274 134.49456 -800 0 -90.237509 118.54439 -800 0 
	-800 0 -1.0485294 131.05707 -800 0 -16.662828 -131.95649 
	-90.237509 118.54439 -800 0 -0.013965744 176.79281 -800 0 
	-800 0 -16.662828 -131.95649 -800 0 -0.65604261 160.96747 
31.72 -1.0448081 134.31045 -800 0 -90.179429 120.21794 -800 0 
	-800 0 -1.0527042 130.85982 -800 0 -16.580653 -132.29271 
	-90.179429 120.21794 -800 0 -0.013995062 176.79154 -800 0 
	-800 0 -16.580653 -132.29271 -800 0 -0.67021315 160.66044 
31.73 -1.0481462 134.12607 -800 0 -90.111004 121.9105 -800 0 
	-800 0 -1.0569618 130.66224 -800 0 -16.497335 -132.63315 
	-90.111004 121.9105 -800 0 -0.014024444 176.79026 -800 0 
	-800 0 -16.497335 -132.63315 -800 0 -0.68482859 160.3468 
31.74 -1.0515451 133.94141 -800 0 -90.031903 123.61807 -800 0 
	-800 0 -1.0613062 130.46433 -800 0 -16.412862 -132.97799 
	-90.031903 123.61807 -800 0 -0.014053894 176.78898 -800 0 
	-800 0 -16.412862 -132.97799 -800 0 -0.69991106 160.02632 
31.75 -1.0550081 133.75646 -800 0 -89.941852 125.33641 -800 0 
	-800 0 -1.0657417 130.26606 -800 0 -16.327216 -133.3274 
	-89.941852 125.33641 -800 0 -0.014083418 176.7877 -800 0 
	-800 0 -16.327216 -133.3274 -800 0 -0.71548412 159.69872 
31.76 -1.0585387 133.57118 -800 0 -89.840638 127.06109 -800 0 
	-800 0 -1.0702727 130.06744 -800 0 -16.240382 -133.68156 
	-89.840638 127.06109 -800 0 -0.014113022 176.78642 -800 0 
	-800 0 -16.240382 -133.68156 -800 0 -0.73157288 159.36373 
31.77 -1.0621407 133.38558 -800 0 -89.728111 128.78755 -800 0 
	-800 0 -1.074904 129.86843 -800 0 -16.152345 -134.04069 
	-89.728111 128.78755 -800 0 -0.014142713 176.78513 -800 0 
	-800 0 -16.152345 -134.04069 -800 0 -0.74820404 159.02106 
31.78 -1.0658182 133.19962 -800 0 -89.604192 130.51116 -800 0 
	-800 0 -1.0796406 129.66904 -800 0 -16.063086 -134.40498 
	-89.604192 130.51116 -800 0 -0.014172498 176.78384 -800 0 
	-800 0 -16.063086 -134.40498 -800 0 -0.76540613 158.67041 
31.79 -1.0695754 133.01328 -800 0 -89.468867 132.22725 -800 0 
	-800 0 -1.084488 129.46924 -800 0 -15.97259 -134.77467 
	-89.468867 132.22725 -800 0 -0.014202385 176.78255 -800 0 
	-800 0 -15.97259 -134.77467 -800 0 -0.78320964 158.31145 
31.8 -1.073417 132.82655 -800 0 -89.32219 133.93122 -800 0 
	-800 0 -1.0894518 129.26902 -800 0 -15.880838 -135.14998 
	-89.32219 133.93122 -800 0 -0.014232383 176.78126 -800 0 
	-800 0 -15.880838 -135.14998 -800 0 -0.80164719 157.94384 
31.81 -1.0776545 132.6402 -800 0 -89.149638 135.5484 -800 0 
	-800 0 -1.0951962 129.06048 -800 0 -15.779471 -135.53072 
	-89.149638 135.5484 -800 0 -0.014217091 176.77985 -800 0 
	-800 0 -15.779471 -135.53072 -800 0 -0.82256289 157.56197 
31.82 -1.0819973 132.45347 -800 0 -88.966532 137.13839 -800 0 
	-800 0 -1.1010866 128.8513 -800 0 -15.676802 -135.91833 
	-88.966532 137.13839 -800 0 -0.014201617 176.77843 -800 0 
	-800 0 -15.676802 -135.91833 -800 0 -0.84425633 157.17039 
31.83 -1.0864514 132.26634 -800 0 -88.773184 138.69742 -800 0 
	-800 0 -1.1071309 128.64147 -800 0 -15.572809 -136.31312 
	-88.773184 138.69742 -800 0 -0.014185965 176.77702 -800 0 
	-800 0 -15.572809 -136.31312 -800 0 -0.86677271 156.76869 
31.84 -1.0910233 132.0788 -800 0 -88.569947 140.22199 -800 0 
	-800 0 -1.1133378 128.43098 -800 0 -15.467471 -136.7154 
	-88.569947 140.22199 -800 0 -0.014170136 176.7756 -800 0 
	-800 0 -15.467471 -136.7154 -800 0 -0.89016064 156.35644 
31.85 -1.0957196 131.89083 -800 0 -88.357207 141.70891 -800 0 
	-800 0 -1.1197163 128.21981 -800 0 -15.360768 -137.1255 
	-88.357207 141.70891 -800 0 -0.014154135 176.77418 -800 0 
	-800 0 -15.360768 -137.1255 -800 0 -0.91447244 155.93318 
31.86 -1.1005478 131.7024 -800 0 -88.135377 143.15536 -800 0 
	-800 0 -1.1262761 128.00794 -800 0 -15.252677 -137.5438 
	-88.135377 143.15536 -800 0 -0.014137964 176.77276 -800 0 
	-800 0 -15.252677 -137.5438 -800 0 -0.9397646 155.49841 
31.87 -1.1055156 131.51351 -800 0 -87.904888 144.55881 -800 0 
	-800 0 -1.1330275 127.79536 -800 0 -15.143178 -137.97066 
	-87.904888 144.55881 -800 0 -0.014121628 176.77134 -800 0 
	-800 0 -15.143178 -137.97066 -800 0 -0.96609796 155.05162 
31.88 -1.1106314 131.32414 -800 0 -87.666183 145.91709 -800 0 
	-800 0 -1.1399815 127.58205 -800 0 -15.032248 -138.4065 
	-87.666183 145.91709 -800 0 -0.014105131 176.76991 -800 0 
	-800 0 -15.032248 -138.4065 -800 0 -0.99353839 154.59226 
31.89 -1.1159039 131.13425 -800 0 -87.41971 147.22835 -800 0 
	-800 0 -1.14715 127.36801 -800 0 -14.919865 -138.85174 
	-87.41971 147.22835 -800 0 -0.014088477 176.76849 -800 0 
	-800 0 -14.919865 -138.85174 -800 0 -1.0221572 154.11976 
31.9 -1.1213428 130.94385 -800 0 -87.165916 148.49104 -800 0 
	-800 0 -1.1545457 127.15322 -800 0 -14.806009 -139.30686 
	-87.165916 148.49104 -800 0 -0.014071672 176.76706 -800 0 
	-800 0 -14.806009 -139.30686 -800 0 -1.0520317 153.63348 
31.91 -1.1273042 130.75422 -800 0 -86.894228 149.59571 -800 0 
	-800 0 -1.1621923 126.94136 -800 0 -14.690607 -139.81879 
	-86.894228 149.59571 -800 0 -0.014033898 176.76562 -800 0 
	-800 0 -14.690607 -139.81879 -800 0 -1.0851664 153.11872 
31.92 -1.133468 130.56416 -800 0 -86.616927 150.64634 -800 0 
	-800 0 -1.170108 126.72887 -800 0 -14.573624 -140.34157 
	-86.616927 150.64634 -800 0 -0.013995894 176.76418 -800 0 
	-800 0 -14.573624 -140.34157 -800 0 -1.1198182 152.58822 
31.93 -1.1398467 130.37368 -800 0 -86.334424 151.64256 -800 0 
	-800 0 -1.1783088 126.51576 -800 0 -14.455043 -140.87578 
	-86.334424 151.64256 -800 0 -0.013957666 176.76273 -800 0 
	-800 0 -14.455043 -140.87578 -800 0 -1.1560934 152.04122 
31.94 -1.1464532 130.18277 -800 0 -86.047108 152.58419 -800 0 
	-800 0 -1.1868116 126.30205 -800 0 -14.334849 -141.42203 
	-86.047108 152.58419 -800 0 -0.013919219 176.76128 -800 0 
	-800 0 -14.334849 -141.42203 -800 0 -1.1941084 151.47688 
31.95 -1.1533018 129.99144 -800 0 -85.755343 153.47119 -800 0 
	-800 0 -1.1956347 126.08775 -800 0 -14.213026 -141.981 
	-85.755343 153.47119 -800 0 -0.013880561 176.75984 -800 0 
	-800 0 -14.213026 -141.981 -800 0 -1.2339904 150.89432 
31.96 -1.1604074 129.79969 -800 0 -85.459468 154.30364 -800 0 
	-800 0 -1.2047975 125.87288 -800 0 -14.089561 -142.55341 
	-85.459468 154.30364 -800 0 -0.013841698 176.75839 -800 0 
	-800 0 -14.089561 -142.55341 -800 0 -1.2758786 150.29261 
31.97 -1.1677861 129.60753 -800 0 -85.1598 155.08172 -800 0 
	-800 0 -1.2143209 125.65746 -800 0 -13.964443 -143.14002 
	-85.1598 155.08172 -800 0 -0.013802635 176.75693 -800 0 
	-800 0 -13.964443 -143.14002 -800 0 -1.319926 149.67075 
31.98 -1.1754552 129.41497 -800 0 -84.856627 155.80565 -800 0 
	-800 0 -1.2242272 125.44155 -800 0 -13.837662 -143.74166 
	-84.856627 155.80565 -800 0 -0.01376338 176.75548 -800 0 
	-800 0 -13.837662 -143.74166 -800 0 -1.3663007 149.02766 
31.99 -1.1834331 129.22204 -800 0 -84.550219 156.47574 -800 0 
	-800 0 -1.2345404 125.22518 -800 0 -13.709214 -144.35922 
	-84.550219 156.47574 -800 0 -0.01372394 176.75402 -800 0 
	-800 0 -13.709214 -144.35922 -800 0 -1.415188 148.3622 
32 -1.1917393 129.02875 -800 0 -84.240819 157.0923 -800 0 
	-800 0 -1.2452858 125.00841 -800 0 -13.579094 -144.99364 
	-84.240819 157.0923 -800 0 -0.013684319 176.75257 -800 0 
	-800 0 -13.579094 -144.99364 -800 0 -1.4667927 147.67315 
32.01 -1.200691 128.83661 -800 0 -83.923966 157.56472 -800 0 
	-800 0 -1.257863 124.79169 -800 0 -13.450981 -145.66125 
	-83.923966 157.56472 -800 0 -0.013656194 176.75122 -800 0 
	-800 0 -13.450981 -145.66125 -800 0 -1.5231181 146.99204 
32.02 -1.2100314 128.64436 -800 0 -83.604971 157.98358 -800 0 
	-800 0 -1.2709362 124.57483 -800 0 -13.321361 -146.34838 
	-83.604971 157.98358 -800 0 -0.013627953 176.74988 -800 0 
	-800 0 -13.321361 -146.34838 -800 0 -1.5827715 146.28673 
32.03 -1.219784 128.45209 -800 0 -83.284009 158.34916 -800 0 
	-800 0 -1.2845354 124.35797 -800 0 -13.190251 -147.05617 
	-83.284009 158.34916 -800 0 -0.013599602 176.74853 -800 0 
	-800 0 -13.190251 -147.05617 -800 0 -1.6460396 145.5559 
32.04 -1.2299738 128.25987 -800 0 -82.961237 158.66171 -800 0 
	-800 0 -1.2986921 124.14124 -800 0 -13.057676 -147.78584 
	-82.961237 158.66171 -800 0 -0.01357115 176.74718 -800 0 
	-800 0 -13.057676 -147.78584 -800 0 -1.7132415 144.79815 
32.05 -1.2406267 128.06781 -800 0 -82.636803 158.9214 -800 0 
	-800 0 -1.3134394 123.92481 -800 0 -12.923669 -148.53871 
	-82.636803 158.9214 -800 0 -0.013542602 176.74583 -800 0 
	-800 0 -12.923669 -148.53871 -800 0 -1.784733 144.01198 
32.06 -1.2517695 127.87603 -800 0 -82.310841 159.12833 -800 0 
	-800 0 -1.3288116 123.70886 -800 0 -12.788273 -149.3162 
	-82.310841 159.12833 -800 0 -0.013513966 176.74447 -800 0 
	-800 0 -12.788273 -149.3162 -800 0 -1.8609122 143.19578 
32.07 -1.2634302 127.68465 -800 0 -81.983476 159.28256 -800 0 
	-800 0 -1.3448446 123.49361 -800 0 -12.651545 -150.11983 
	-81.983476 159.28256 -800 0 -0.013485247 176.74312 -800 0 
	-800 0 -12.651545 -150.11983 -800 0 -1.9422251 142.34787 
32.08 -1.2756371 127.49384 -800 0 -81.654827 159.38404 -800 0 
	-800 0 -1.3615752 123.27934 -800 0 -12.513552 -150.95124 
	-81.654827 159.38404 -800 0 -0.013456452 176.74176 -800 0 
	-800 0 -12.513552 -150.95124 -800 0 -2.0291738 141.46642 
32.09 -1.2884194 127.30378 -800 0 -81.325006 159.43265 -800 0 
	-800 0 -1.3790407 123.06634 -800 0 -12.374379 -151.8122 
	-81.325006 159.43265 -800 0 -0.013427587 176.7404 -800 0 
	-800 0 -12.374379 -151.8122 -800 0 -2.1223244 140.54951 
32.1 -1.3018065 127.11467 -800 0 -80.994123 159.42817 -800 0 
	-800 0 -1.3972789 122.85496 -800 0 -12.234131 -152.7046 
	-80.994123 159.42817 -800 0 -0.013398656 176.73904 -800 0 
	-800 0 -12.234131 -152.7046 -800 0 -2.2223172 139.59511 
32.11 -1.316062 126.92865 -800 0 -80.661771 159.29984 -800 0 
	-800 0 -1.4159659 122.64242 -800 0 -12.092568 -153.66446 
	-80.661771 159.29984 -800 0 -0.01338001 176.73777 -800 0 
	-800 0 -12.092568 -153.66446 -800 0 -2.3343914 138.61184 
32.12 -1.330994 126.7443 -800 0 -80.328748 159.11741 -800 0 
	-800 0 -1.4355167 122.43262 -800 0 -11.950385 -154.66077 
	-80.328748 159.11741 -800 0 -0.013361362 176.7365 -800 0 
	-800 0 -11.950385 -154.66077 -800 0 -2.4552557 137.58873 
32.13 -1.3466307 126.56192 -800 0 -79.995174 158.88025 -800 0 
	-800 0 -1.4559639 122.2261 -800 0 -11.807782 -155.69586 
	-79.995174 158.88025 -800 0 -0.013342716 176.73523 -800 0 
	-800 0 -11.807782 -155.69586 -800 0 -2.5858962 136.52374 
32.14 -1.3629997 126.38185 -800 0 -79.661177 158.58763 -800 0 
	-800 0 -1.4773368 122.0235 -800 0 -11.664998 -156.77226 
	-79.661177 158.58763 -800 0 -0.013324079 176.73396 -800 0 
	-800 0 -11.664998 -156.77226 -800 0 -2.7274425 135.41478 
32.15 -1.3801273 126.20449 -800 0 -79.326894 158.23872 -800 0 
	-800 0 -1.499659 121.82553 -800 0 -11.522316 -157.89267 
	-79.326894 158.23872 -800 0 -0.013305453 176.73269 -800 0 
	-800 0 -11.522316 -157.89267 -800 0 -2.8811933 134.25976 
32.16 -1.3980381 126.03023 -800 0 -78.992476 157.83258 -800 0 
	-800 0 -1.5229474 121.63301 -800 0 -11.380071 -159.05998 
	-78.992476 157.83258 -800 0 -0.013286843 176.73141 -800 0 
	-800 0 -11.380071 -159.05998 -800 0 -3.0486483 133.05666 
32.17 -1.4167546 125.85956 -800 0 -78.658086 157.36818 -800 0 
	-800 0 -1.5472089 121.44684 -800 0 -11.238662 -160.27723 
	-78.658086 157.36818 -800 0 -0.013268254 176.73014 -800 0 
	-800 0 -11.238662 -160.27723 -800 0 -3.2315458 131.80358 
32.18 -1.4362964 125.69298 -800 0 -78.323909 156.8444 -800 0 
	-800 0 -1.5724378 121.26804 -800 0 -11.09856 -161.5477 
	-78.323909 156.8444 -800 0 -0.013249687 176.72886 -800 0 
	-800 0 -11.09856 -161.5477 -800 0 -3.4319098 130.49885 
32.19 -1.4566795 125.53104 -800 0 -77.990151 156.26 -800 0 
	-800 0 -1.5986114 121.09776 -800 0 -10.960321 -162.87478 
	-77.990151 156.26 -800 0 -0.013231147 176.72758 -800 0 
	-800 0 -10.960321 -162.87478 -800 0 -3.6521082 129.14119 
32.2 -1.4779146 125.37438 -800 0 -77.65704 155.61371 -800 0 
	-800 0 -1.6256855 120.93726 -800 0 -10.824608 -164.26207 
	-77.65704 155.61371 -800 0 -0.013212635 176.7263 -800 0 
	-800 0 -10.824608 -164.26207 -800 0 -3.8949246 127.72993 
32.21 -1.4998933 125.22913 -800 0 -77.33183 154.81936 -800 0 
	-800 0 -1.6542353 120.79168 -800 0 -10.694648 -165.7123 
	-77.33183 154.81936 -800 0 -0.013202027 176.72509 -800 0 
	-800 0 -10.694648 -165.7123 -800 0 -4.1613424 126.26543 
32.22 -1.5226473 125.09093 -800 0 -77.008386 153.96189 -800 0 
	-800 0 -1.6834962 120.65876 -800 0 -10.568778 -167.23036 
	-77.008386 153.96189 -800 0 -0.013191498 176.72388 -800 0 
	-800 0 -10.568778 -167.23036 -800 0 -4.4573042 124.74761 
32.23 -1.5461491 124.96058 -800 0 -76.687062 153.04005 -800 0 
	-800 0 -1.7133165 120.54012 -800 0 -10.448073 -168.82 
	-76.687062 153.04005 -800 0 -0.01318105 176.72266 -800 0 
	-800 0 -10.448073 -168.82 -800 0 -4.7874529 123.17966 
32.24 -1.570358 124.83891 -800 0 -76.368248 152.05264 -800 0 
	-800 0 -1.74349 120.43742 -800 0 -10.333802 -170.48484 
	-76.368248 152.05264 -800 0 -0.013170685 176.72145 -800 0 
	-800 0 -10.333802 -170.48484 -800 0 -5.1573826 121.56754 
32.25 -1.5952169 124.72679 -800 0 -76.052378 150.99851 -800 0 
	-800 0 -1.7737445 120.35238 -800 0 -10.227454 -172.22817 
	-76.052378 150.99851 -800 0 -0.013160404 176.72023 -800 0 
	-800 0 -10.227454 -172.22817 -800 0 -5.5738828 119.92132 
32.26 -1.6206503 124.62514 -800 0 -75.739925 149.87663 -800 0 
	-800 0 -1.8037298 120.28665 -800 0 -10.130773 -174.05273 
	-75.739925 149.87663 -800 0 -0.013150207 176.71902 -800 0 
	-800 0 -10.130773 -174.05273 -800 0 -6.0452629 118.25713 
32.27 -1.6465613 124.53488 -800 0 -75.43141 148.68611 -800 0 
	-800 0 -1.8330056 120.2417 -800 0 -10.045785 -175.96039 
	-75.43141 148.68611 -800 0 -0.013140095 176.7178 -800 0 
	-800 0 -10.045785 -175.96039 -800 0 -6.5817831 116.60021 
32.28 -1.6728292 124.45696 -800 0 -75.127397 147.42626 -800 0 
	-800 0 -1.8610319 120.2187 -800 0 -9.9748382 -177.95176 
	-75.127397 147.42626 -800 0 -0.013130068 176.71658 -800 0 
	-800 0 -9.9748382 -177.95176 -800 0 -7.1962379 114.9897 
32.29 -1.6993067 124.39227 -800 0 -74.828494 146.09663 -800 0 
	-800 0 -1.8871633 120.21829 -800 0 -9.920622 179.97438 
	-74.828494 146.09663 -800 0 -0.013120125 176.71536 -800 0 
	-800 0 -9.920622 179.97438 -800 0 -7.9047432 113.4864 
32.3 -1.7258183 124.34168 -800 0 -74.535355 144.69708 -800 0 
	-800 0 -1.9106515 120.24032 -800 0 -9.8861899 177.82172 
	-74.535355 144.69708 -800 0 -0.013110265 176.71414 -800 0 
	-800 0 -9.8861899 177.82172 -800 0 -8.7277863 112.18609 
32.31 -1.750714 124.31265 -800 0 -74.266321 143.16041 -800 0 
	-800 0 -1.9304735 120.29097 -800 0 -9.8797077 175.56999 
	-74.266321 143.16041 -800 0 -0.013104846 176.71296 -800 0 
	-800 0 -9.8797077 175.56999 -800 0 -9.7006179 111.32719 
32.32 -1.774981 124.29816 -800 0 -74.005126 141.56262 -800 0 
	-800 0 -1.9458023 120.3599 -800 0 -9.9004109 173.26023 
	-74.005126 141.56262 -800 0 -0.01309954 176.71178 -800 0 
	-800 0 -9.9004109 173.26023 -800 0 -10.847494 111.11496 
32.33 -1.7983633 124.2984 -800 0 -73.752456 139.90546 -800 0 
	-800 0 -1.955756 120.44262 -800 0 -9.9522705 170.90951 
	-73.752456 139.90546 -800 0 -0.013094344 176.7106 -800 0 
	-800 0 -9.9522705 170.90951 -800 0 -12.207144 112.00942 
32.34 -1.8205872 124.3133 -800 0 -73.508999 138.19118 -800 0 
	-800 0 -1.9595341 120.5328 -800 0 -10.039413 168.54166 
	-73.508999 138.19118 -800 0 -0.013089259 176.70941 -800 0 
	-800 0 -10.039413 168.54166 -800 0 -13.81491 114.83723 
32.35 -1.8413666 124.34256 -800 0 -73.275435 136.42258 -800 0 
	-800 0 -1.9565119 120.62224 -800 0 -10.165948 166.18859 
	-73.275435 136.42258 -800 0 -0.013084281 176.70823 -800 0 
	-800 0 -10.165948 166.18859 -800 0 -15.658532 121.10137 
32.36 -1.8604104 124.38555 -800 0 -73.052429 134.60298 -800 0 
	-800 0 -1.9463468 120.70102 -800 0 -10.335704 163.89175 
	-73.052429 134.60298 -800 0 -0.013079408 176.70705 -800 0 
	-800 0 -10.335704 163.89175 -800 0 -17.517364 133.19867 
32.37 -1.8774302 124.44134 -800 0 -72.840611 132.73628 -800 0 
	-800 0 -1.9290777 120.75809 -800 0 -10.551877 161.70337 
	-72.840611 132.73628 -800 0 -0.01307464 176.70586 -800 0 
	-800 0 -10.551877 161.70337 -800 0 -18.639924 152.5662 
32.38 -1.8921503 124.50866 -800 0 -72.640568 130.82692 -800 0 
	-800 0 -1.9052011 120.782 -800 0 -10.816539 159.68754 
	-72.640568 130.82692 -800 0 -0.013069974 176.70467 -800 0 
	-800 0 -10.816539 159.68754 -800 0 -18.13447 173.88897 
32.39 -1.9043175 124.58595 -800 0 -72.452829 128.87985 -800 0 
	-800 0 -1.8756994 120.76188 -800 0 -11.130011 157.92055 
	-72.452829 128.87985 -800 0 -0.013065408 176.70349 -800 0 
	-800 0 -11.130011 157.92055 -800 0 -16.423999 -171.02942 
32.4 -1.9137117 124.6713 -800 0 -72.27785 126.90048 -800 0 
	-800 0 -1.8420109 120.68854 -800 0 -11.490058 156.49042 
	-72.27785 126.90048 -800 0 -0.01306094 176.7023 -800 0 
	-800 0 -11.490058 156.49042 -800 0 -14.485054 -163.09133 
32.41 -1.9176421 124.75741 -800 0 -72.139822 124.89633 -800 0 
	-800 0 -1.8069747 120.55545 -800 0 -11.886205 155.44998 
	-72.139822 124.89633 -800 0 -0.013056607 176.70112 -800 0 
	-800 0 -11.886205 155.44998 -800 0 -12.727994 -159.70328 
32.42 -1.9186414 124.84436 -800 0 -72.014593 122.88418 -800 0 
	-800 0 -1.7715093 120.35831 -800 0 -12.312118 154.94815 
	-72.014593 122.88418 -800 0 -0.013052379 176.69994 -800 0 
	-800 0 -12.312118 154.94815 -800 0 -11.253142 -159.07713 
32.43 -1.9167144 124.92983 -800 0 -71.902151 120.86989 -800 0 
	-800 0 -1.7377275 120.09711 -800 0 -12.751262 155.08062 
	-71.902151 120.86989 -800 0 -0.013048257 176.69876 -800 0 
	-800 0 -12.751262 155.08062 -800 0 -10.039001 -160.07473 
32.44 -1.9119196 125.01159 -800 0 -71.802392 118.85931 -800 0 
	-800 0 -1.7076373 119.77518 -800 0 -13.180368 155.92175 
	-71.802392 118.85931 -800 0 -0.013044238 176.69758 -800 0 
	-800 0 -13.180368 155.92175 -800 0 -9.047468 -162.06313 
32.45 -1.9043669 125.08749 -800 0 -71.715117 116.85813 -800 0 
	-800 0 -1.6830121 119.39863 -800 0 -13.569619 157.50187 
	-71.715117 116.85813 -800 0 -0.013040323 176.6964 -800 0 
	-800 0 -13.569619 157.50187 -800 0 -8.2438332 -164.67438 
32.46 -1.8942129 125.15553 -800 0 -71.640042 114.87181 -800 0 
	-800 0 -1.6653066 118.97566 -800 0 -13.884898 159.78076 
	-71.640042 114.87181 -800 0 -0.013036509 176.69522 -800 0 
	-800 0 -13.884898 159.78076 -800 0 -7.5999332 -167.68355 
32.47 -1.8816541 125.21395 -800 0 -71.5768 112.90554 -800 0 
	-800 0 -1.6556234 118.51573 -800 0 -14.092869 162.62727 
	-71.5768 112.90554 -800 0 -0.013032798 176.69403 -800 0 
	-800 0 -14.092869 162.62727 -800 0 -7.0935538 -170.94736 
32.48 -1.8669192 125.26125 -800 0 -71.524954 110.9641 -800 0 
	-800 0 -1.6547201 118.0289 -800 0 -14.168299 165.82042 
	-71.524954 110.9641 -800 0 -0.013029188 176.69285 -800 0 
	-800 0 -14.168299 165.82042 -800 0 -6.7072866 -174.37208 
32.49 -1.8502604 125.29618 -800 0 -71.484002 109.0519 -800 0 
	-800 0 -1.6630449 117.52524 -800 0 -14.100862 169.08259 
	-71.484002 109.0519 -800 0 -0.013025678 176.69166 -800 0 
	-800 0 -14.100862 169.08259 -800 0 -6.4275569 -177.89569 
32.5 -1.8319444 125.3178 -800 0 -71.453394 107.17285 -800 0 
	-800 0 -1.6807868 117.0145 -800 0 -13.897755 172.13683 
	-71.453394 107.17285 -800 0 -0.01302227 176.69048 -800 0 
	-800 0 -13.897755 172.13683 -800 0 -6.2439075 178.52272 
32.51 -1.8112246 125.30923 -800 0 -71.453167 105.40233 -800 0 
	-800 0 -1.7077103 116.51905 -800 0 -13.590878 174.73397 
	-71.453167 105.40233 -800 0 -0.013014226 176.68927 -800 0 
	-800 0 -13.590878 174.73397 -800 0 -6.1410338 174.92797 
32.52 -1.7897902 125.28643 -800 0 -71.46036 103.67669 -800 0 
	-800 0 -1.7438308 116.03664 -800 0 -13.199885 176.76296 
	-71.46036 103.67669 -800 0 -0.013006272 176.68805 -800 0 
	-800 0 -13.199885 176.76296 -800 0 -6.1204942 171.33659 
32.53 -1.767873 125.24963 -800 0 -71.47435 101.9972 -800 0 
	-800 0 -1.7887644 115.57559 -800 0 -12.754489 178.17197 
	-71.47435 101.9972 -800 0 -0.012998406 176.68684 -800 0 
	-800 0 -12.754489 178.17197 -800 0 -6.1785503 167.75956 
32.54 -1.7456854 125.19925 -800 0 -71.494528 100.3647 -800 0 
	-800 0 -1.842007 115.14367 -800 0 -12.280443 178.97111 
	-71.494528 100.3647 -800 0 -0.012990627 176.68563 -800 0 
	-800 0 -12.280443 178.97111 -800 0 -6.3133299 164.2039 
32.55 -1.7234186 125.13579 -800 0 -71.520301 98.779701 -800 0 
	-800 0 -1.9029457 114.74813 -800 0 -11.797802 179.20728 
	-71.520301 98.779701 -800 0 -0.012982935 176.68441 -800 0 
	-800 0 -11.797802 179.20728 -800 0 -6.5247739 160.67418 
32.56 -1.7012415 125.05989 -800 0 -71.551099 97.242356 -800 0 
	-800 0 -1.9708602 114.39577 -800 0 -11.321046 178.94399 
	-71.551099 97.242356 -800 0 -0.012975329 176.6832 -800 0 
	-800 0 -11.321046 178.94399 -800 0 -6.814681 157.17379 
32.57 -1.6793011 124.97223 -800 0 -71.586382 95.752541 -800 0 
	-800 0 -2.0449181 114.09291 -800 0 -10.86006 178.24828 
	-71.586382 95.752541 -800 0 -0.012967809 176.68198 -800 0 
	-800 0 -10.86006 178.24828 -800 0 -7.1868646 153.70599 
32.58 -1.6577233 124.87357 -800 0 -71.625637 94.309878 -800 0 
	-800 0 -2.1241666 113.84536 -800 0 -10.421277 177.18371 
	-71.625637 94.309878 -800 0 -0.012960372 176.68076 -800 0 
	-800 0 -10.421277 177.18371 -800 0 -7.6474616 150.27488 
32.59 -1.6366136 124.76465 -800 0 -71.668383 92.913772 -800 0 
	-800 0 -2.2075244 113.65831 -800 0 -10.008697 175.80733 
	-71.668383 92.913772 -800 0 -0.012953019 176.67954 -800 0 
	-800 0 -10.008697 175.80733 -800 0 -8.2054599 146.8864 
32.6 -1.6160591 124.64626 -800 0 -71.71417 91.563444 -800 0 
	-800 0 -2.2937768 113.53617 -800 0 -9.6246623 174.169 
	-71.71417 91.563444 -800 0 -0.012945747 176.67832 -800 0 
	-800 0 -9.6246623 174.169 -800 0 -8.8735654 143.54957 
32.61 -1.5964404 124.50792 -800 0 -71.775104 90.339454 -800 0 
	-800 0 -2.3840292 113.4719 -800 0 -9.2650875 172.27008 
	-71.775104 90.339454 -800 0 -0.012929 176.67705 -800 0 
	-800 0 -9.2650875 172.27008 -800 0 -9.6844727 140.33235 
32.62 -1.5776244 124.36271 -800 0 -71.837087 89.158098 -800 0 
	-800 0 -2.4745829 113.47988 -800 0 -8.9362099 170.18667 
	-71.837087 89.158098 -800 0 -0.0129123 176.67577 -800 0 
	-800 0 -8.9362099 170.18667 -800 0 -10.654435 137.22565 
32.63 -1.5596265 124.21133 -800 0 -71.899845 88.017874 -800 0 
	-800 0 -2.563825 113.56114 -800 0 -8.6381507 167.95153 
	-71.899845 88.017874 -800 0 -0.012895645 176.67449 -800 0 
	-800 0 -8.6381507 167.95153 -800 0 -11.823042 134.27937 
32.64 -1.5424536 124.05442 -800 0 -71.963133 86.917268 -800 0 
	-800 0 -2.6500761 113.71492 -800 0 -8.3706929 165.5935 
	-71.963133 86.917268 -800 0 -0.012879035 176.67321 -800 0 
	-800 0 -8.3706929 165.5935 -800 0 -13.251407 131.58077 
32.65 -1.5261057 123.89256 -800 0 -72.02673 85.854776 -800 0 
	-800 0 -2.7316475 113.93846 -800 0 -8.1333724 163.13823 
	-72.02673 85.854776 -800 0 -0.012862468 176.67193 -800 0 
	-800 0 -8.1333724 163.13823 -800 0 -15.040492 129.29844 
32.66 -1.5105767 123.72631 -800 0 -72.090439 84.828908 -800 0 
	-800 0 -2.806911 114.2269 -800 0 -7.9255303 160.6087 
	-72.090439 84.828908 -800 0 -0.012845944 176.67065 -800 0 
	-800 0 -7.9255303 160.6087 -800 0 -17.374237 127.81006 
32.67 -1.4958562 123.55616 -800 0 -72.154083 83.838202 -800 0 
	-800 0 -2.8743755 114.57333 -800 0 -7.7463432 158.02569 
	-72.154083 83.838202 -800 0 -0.01282946 176.66937 -800 0 
	-800 0 -7.7463432 158.02569 -800 0 -20.640746 128.18244 
32.68 -1.48193 123.38258 -800 0 -72.217509 82.881227 -800 0 
	-800 0 -2.9327627 114.969 -800 0 -7.5948418 155.408 
	-72.217509 82.881227 -800 0 -0.012813016 176.66809 -800 0 
	-800 0 -7.5948418 155.408 -800 0 -25.865351 134.99264 
32.69 -1.4687809 123.20598 -800 0 -72.280578 81.956588 -800 0 
	-800 0 -2.9810736 115.40364 -800 0 -7.4699241 152.77263 
	-72.280578 81.956588 -800 0 -0.01279661 176.6668 -800 0 
	-800 0 -7.4699241 152.77263 -800 0 -34.297008 -169.6667 
32.7 -1.45639 123.02673 -800 0 -72.343169 81.062933 -800 0 
	-800 0 -3.0186379 115.86602 -800 0 -7.3703694 150.13494 
	-72.343169 81.062933 -800 0 -0.012780241 176.66552 -800 0 
	-800 0 -7.3703694 150.13494 -800 0 -26.914789 -98.35487 
32.71 -1.4449621 122.84071 -800 0 -72.412131 80.24868 -800 0 
	-800 0 -3.040554 116.34796 -800 0 -7.3066924 147.54966 
	-72.412131 80.24868 -800 0 -0.01274993 176.66415 -800 0 
	-800 0 -7.3066924 147.54966 -800 0 -21.33973 -89.539561 
32.72 -1.4342635 122.65315 -800 0 -72.479934 79.461419 -800 0 
	-800 0 -3.0516295 116.82987 -800 0 -7.2648704 144.99125 
	-72.479934 79.461419 -800 0 -0.012719606 176.66277 -800 0 
	-800 0 -7.2648704 144.99125 -800 0 -17.92158 -88.409229 
32.73 -1.424267 122.46428 -800 0 -72.54653 78.699908 -800 0 
	-800 0 -3.0523577 117.30136 -800 0 -7.243376 142.46945 
	-72.54653 78.699908 -800 0 -0.012689269 176.6614 -800 0 
	-800 0 -7.243376 142.46945 -800 0 -15.499182 -89.268259 
32.74 -1.4149458 122.27433 -800 0 -72.611879 77.962961 -800 0 
	-800 0 -3.0434836 117.75328 -800 0 -7.2406622 139.99247 
	-72.611879 77.962961 -800 0 -0.012658918 176.66003 -800 0 
	-800 0 -7.2406622 139.99247 -800 0 -13.643045 -90.880374 
32.75 -1.4062741 122.08349 -800 0 -72.67595 77.249451 -800 0 
	-800 0 -3.0259411 118.17804 -800 0 -7.2551842 137.56708 
	-72.67595 77.249451 -800 0 -0.012628552 176.65865 -800 0 
	-800 0 -7.2551842 137.56708 -800 0 -12.152764 -92.825234 
32.76 -1.3982266 121.89194 -800 0 -72.738717 76.558304 -800 0 
	-800 0 -3.000787 118.56964 -800 0 -7.2854178 135.19871 
	-72.738717 76.558304 -800 0 -0.012598169 176.65727 -800 0 
	-800 0 -7.2854178 135.19871 -800 0 -10.918985 -94.921123 
32.77 -1.3907792 121.69983 -800 0 -72.800162 75.888496 -800 0 
	-800 0 -2.9691388 118.92374 -800 0 -7.3298778 132.89155 
	-72.800162 75.888496 -800 0 -0.01256777 176.6559 -800 0 
	-800 0 -7.3298778 132.89155 -800 0 -9.8753857 -97.076916 
32.78 -1.3839087 121.50731 -800 0 -72.86027 75.239055 -800 0 
	-800 0 -2.9321196 119.23755 -800 0 -7.3871325 130.64866 
	-72.86027 75.239055 -800 0 -0.012537353 176.65452 -800 0 
	-800 0 -7.3871325 130.64866 -800 0 -8.9785822 -99.242243 
32.79 -1.3775929 121.31448 -800 0 -72.919032 74.609054 -800 0 
	-800 0 -2.8908142 119.50963 -800 0 -7.4558158 128.4721 
	-72.919032 74.609054 -800 0 -0.012506917 176.65314 -800 0 
	-800 0 -7.4558158 128.4721 -800 0 -8.1985344 -101.38743 
32.8 -1.371811 121.12147 -800 0 -72.976443 73.997613 -800 0 
	-800 0 -2.8462362 119.73972 -800 0 -7.5346368 126.36301 
	-72.976443 73.997613 -800 0 -0.012476462 176.65176 -800 0 
	-800 0 -7.5346368 126.36301 -800 0 -7.5135039 -103.4943 
32.81 -1.3664241 120.92651 -800 0 -73.037284 73.426438 -800 0 
	-800 0 -2.7999263 119.92803 -800 0 -7.6235122 124.32958 
	-73.037284 73.426438 -800 0 -0.012428423 176.65027 -800 0 
	-800 0 -7.6235122 124.32958 -800 0 -6.9140566 -105.57513 
32.82 -1.3615414 120.73164 -800 0 -73.096582 72.871872 -800 0 
	-800 0 -2.7521661 120.07647 -800 0 -7.719891 122.36494 
	-73.096582 72.871872 -800 0 -0.012380307 176.64877 -800 0 
	-800 0 -7.719891 122.36494 -800 0 -6.3801883 -107.59293 
32.83 -1.3571438 120.53693 -800 0 -73.15435 72.333137 -800 0 
	-800 0 -2.7036564 120.18711 -800 0 -7.8227264 120.46814 
	-73.15435 72.333137 -800 0 -0.012332113 176.64728 -800 0 
	-800 0 -7.8227264 120.46814 -800 0 -5.9020753 -109.54496 
32.84 -1.3532136 120.34243 -800 0 -73.210602 71.809492 -800 0 
	-800 0 -2.6549894 120.26232 -800 0 -7.93106 118.63776 
	-73.210602 71.809492 -800 0 -0.012283842 176.64579 -800 0 
	-800 0 -7.93106 118.63776 -800 0 -5.4718109 -111.43007 
32.85 -1.349734 120.14821 -800 0 -73.265357 71.300235 -800 0 
	-800 0 -2.606655 120.30469 -800 0 -8.0440199 116.87206 
	-73.265357 71.300235 -800 0 -0.012235493 176.64429 -800 0 
	-800 0 -8.0440199 116.87206 -800 0 -5.0829292 -113.24827 
32.86 -1.3466897 119.95431 -800 0 -73.318632 70.8047 -800 0 
	-800 0 -2.5590506 120.31689 -800 0 -8.1608171 115.16898 
	-73.318632 70.8047 -800 0 -0.012187064 176.6428 -800 0 
	-800 0 -8.1608171 115.16898 -800 0 -4.7300703 -115.00037 
32.87 -1.344066 119.76078 -800 0 -73.370449 70.322255 -800 0 
	-800 0 -2.5124907 120.3016 -800 0 -8.2807413 113.52628 
	-73.370449 70.322255 -800 0 -0.012138557 176.6413 -800 0 
	-800 0 -8.2807413 113.52628 -800 0 -4.4087402 -116.68774 
32.88 -1.3418496 119.56765 -800 0 -73.420828 69.852298 -800 0 
	-800 0 -2.4672182 120.2614 -800 0 -8.4031561 111.94155 
	-73.420828 69.852298 -800 0 -0.01208997 176.6398 -800 0 
	-800 0 -8.4031561 111.94155 -800 0 -4.1151333 -118.31215 
32.89 -1.340028 119.37496 -800 0 -73.469791 69.39426 -800 0 
	-800 0 -2.4234143 120.19879 -800 0 -8.5274947 110.4123 
	-73.469791 69.39426 -800 0 -0.012041303 176.6383 -800 0 
	-800 0 -8.5274947 110.4123 -800 0 -3.8459995 -119.87566 
32.9 -1.3385895 119.18275 -800 0 -73.517363 68.9476 -800 0 
	-800 0 -2.3812084 120.11608 -800 0 -8.6532551 108.93594 
	-73.517363 68.9476 -800 0 -0.011992555 176.6368 -800 0 
	-800 0 -8.6532551 108.93594 -800 0 -3.5985421 -121.38053 
32.91 -1.3372458 118.98962 -800 0 -73.567467 68.521725 -800 0 
	-800 0 -2.3402949 120.00433 -800 0 -8.7878101 107.54533 
	-73.567467 68.521725 -800 0 -0.011923765 176.63517 -800 0 
	-800 0 -8.7878101 107.54533 -800 0 -3.3855496 -122.92365 
32.92 -1.3362776 118.79704 -800 0 -73.616112 68.106488 -800 0 
	-800 0 -2.3012341 119.87656 -800 0 -8.9228882 106.20635 
	-73.616112 68.106488 -800 0 -0.011854833 176.63354 -800 0 
	-800 0 -8.9228882 106.20635 -800 0 -3.1895284 -124.40566 
32.93 -1.3356746 118.60503 -800 0 -73.663328 67.701393 -800 0 
	-800 0 -2.2640356 119.73461 -800 0 -9.058192 104.91644 
	-73.663328 67.701393 -800 0 -0.011785758 176.63191 -800 0 
	-800 0 -9.058192 104.91644 -800 0 -3.0087185 -125.83025 
32.94 -1.3354269 118.41362 -800 0 -73.709142 67.305972 -800 0 
	-800 0 -2.2286872 119.58018 -800 0 -9.193481 103.67316 
	-73.709142 67.305972 -800 0 -0.011716541 176.63028 -800 0 
	-800 0 -9.193481 103.67316 -800 0 -2.8415805 -127.20112 
32.95 -1.3355254 118.22282 -800 0 -73.753583 66.919782 -800 0 
	-800 0 -2.1951611 119.41474 -800 0 -9.3285727 102.47422 
	-73.753583 66.919782 -800 0 -0.01164718 176.62865 -800 0 
	-800 0 -9.3285727 102.47422 -800 0 -2.6867799 -128.522 
32.96 -1.3359615 118.03266 -800 0 -73.79668 66.542407 -800 0 
	-800 0 -2.1634197 119.23961 -800 0 -9.4633386 101.31768 
	-73.79668 66.542407 -800 0 -0.011577676 176.62702 -800 0 
	-800 0 -9.4633386 101.31768 -800 0 -2.5432087 -129.79676 
32.97 -1.336727 117.84316 -800 0 -73.83846 66.17345 -800 0 
	-800 0 -2.1334245 119.05595 -800 0 -9.5976586 100.20221 
	-73.83846 66.17345 -800 0 -0.011508028 176.62538 -800 0 
	-800 0 -9.5976586 100.20221 -800 0 -2.4100488 -131.02892 
32.98 -1.3378142 117.65434 -800 0 -73.878953 65.812541 -800 0 
	-800 0 -2.1051378 118.86488 -800 0 -9.7313013 99.126852 
	-73.878953 65.812541 -800 0 -0.011438235 176.62375 -800 0 
	-800 0 -9.7313013 99.126852 -800 0 -2.2867194 -132.22016 
32.99 -1.3392162 117.46621 -800 0 -73.918187 65.459327 -800 0 
	-800 0 -2.0785063 118.66751 -800 0 -9.8639098 98.08964 
	-73.918187 65.459327 -800 0 -0.011368298 176.62211 -800 0 
	-800 0 -9.8639098 98.08964 -800 0 -2.1724512 -133.36986 
33 -1.340926 117.2788 -800 0 -73.956189 65.113477 -800 0 
	-800 0 -2.0534486 118.46477 -800 0 -9.9952998 97.087128 
	-73.956189 65.113477 -800 0 -0.011298217 176.62047 -800 0 
	-800 0 -9.9952998 97.087128 -800 0 -2.0660772 -134.47875 
