! Package Model of CGH21240 Transistor Output 
! Port 1 is Package Lead
! Port 2 is DUT
!AWR Design Environment (4229) Tue Oct 21 15:56:06 2008
!
!freq-unit  param-type  data-format  keyword  impedance-ohms
# GHz           S          MA           R         50
!-----------------------------------------------------------------------------
!Freq         MagS11       AngS11       MagS21       AngS21       MagS12       AngS12       MagS22       AngS22
 0            3.5786e-8    -0           1            -0           1            -0           3.4459e-8    -0          
 0.1          0.0829      -94.847       0.99656     -4.8525       0.99656     -4.8525       0.0829      -94.858      
 0.2          0.1641      -99.629       0.98644     -9.6393       0.98644     -9.6393       0.1641      -99.65       
 0.3          0.24206     -104.28       0.97026     -14.3         0.97026     -14.3         0.24206     -104.32      
 0.4          0.31556     -108.76       0.9489      -18.784       0.9489      -18.784       0.31556     -108.8       
 0.5          0.38374     -113.03       0.92344     -23.052       0.92344     -23.052       0.38374     -113.08      
 0.6          0.44611     -117.05       0.89498     -27.078       0.89498     -27.078       0.44611     -117.11      
 0.7          0.50252     -120.81       0.86456     -30.848       0.86456     -30.848       0.50252     -120.88      
 0.8          0.55311     -124.32       0.83311     -34.359       0.83311     -34.359       0.55311     -124.4       
 0.9          0.59816     -127.57       0.80138     -37.615       0.80138     -37.615       0.59816     -127.66      
 1            0.6381      -130.57       0.76995     -40.625       0.76995     -40.625       0.6381      -130.68      
 1.1          0.6734      -133.34       0.73927     -43.403       0.73927     -43.403       0.6734      -133.46      
 1.2          0.70456     -135.9        0.70964     -45.965       0.70964     -45.965       0.70456     -136.03      
 1.3          0.73205     -138.26       0.68125     -48.328       0.68125     -48.328       0.73205     -138.4       
 1.4          0.7563      -140.43       0.65422     -50.507       0.65422     -50.507       0.7563      -140.58      
 1.5          0.77773     -142.44       0.6286      -52.52        0.6286      -52.52        0.77773     -142.6       
 1.6          0.79669     -144.29       0.60439     -54.381       0.60439     -54.381       0.79669     -144.47      
 1.7          0.81349     -146.01       0.58157     -56.104       0.58157     -56.104       0.81349     -146.2       
 1.8          0.82843     -147.6        0.5601      -57.702       0.5601      -57.702       0.82843     -147.8       
 1.9          0.84173     -149.08       0.5399      -59.188       0.5399      -59.188       0.84173     -149.29      
 2            0.8536      -150.46       0.52092     -60.571       0.52092     -60.571       0.8536      -150.68      
 2.1          0.86424     -151.74       0.50309     -61.861       0.50309     -61.861       0.86424     -151.98      
 2.2          0.87378     -152.94       0.48632     -63.067       0.48632     -63.067       0.87378     -153.19      
 2.3          0.88236     -154.06       0.47057     -64.196       0.47057     -64.196       0.88236     -154.33      
 2.4          0.89011     -155.11       0.45574     -65.256       0.45574     -65.256       0.89011     -155.4       
 2.5          0.89712     -156.1        0.44179     -66.253       0.44179     -66.253       0.89712     -156.4       
 2.6          0.90347     -157.03       0.42866     -67.191       0.42866     -67.191       0.90347     -157.35      
 2.7          0.90924     -157.91       0.41627     -68.077       0.41627     -68.077       0.90924     -158.24      
 2.8          0.9145      -158.74       0.40459     -68.914       0.40459     -68.914       0.9145      -159.09      
 2.9          0.9193      -159.53       0.39356     -69.707       0.39356     -69.707       0.9193      -159.89      
 3            0.92369     -160.27       0.38314     -70.459       0.38314     -70.459       0.92369     -160.65      
 3.1          0.92771     -160.97       0.37329     -71.174       0.37329     -71.174       0.92771     -161.37      
 3.2          0.93141     -161.65       0.36397     -71.854       0.36397     -71.854       0.93141     -162.06      
 3.3          0.93482     -162.28       0.35513     -72.502       0.35513     -72.502       0.93482     -162.72      
 3.4          0.93795     -162.89       0.34676     -73.121       0.34676     -73.121       0.93795     -163.35      
 3.5          0.94085     -163.47       0.33882     -73.712       0.33882     -73.712       0.94085     -163.95      
 3.6          0.94353     -164.03       0.33128     -74.279       0.33128     -74.279       0.94353     -164.53      
 3.7          0.94602     -164.56       0.32411     -74.822       0.32411     -74.822       0.94602     -165.08      
 3.8          0.94833     -165.07       0.3173      -75.343       0.3173      -75.343       0.94833     -165.61      
 3.9          0.95047     -165.56       0.31082     -75.844       0.31082     -75.844       0.95047     -166.13      
 4            0.95246     -166.03       0.30465     -76.326       0.30465     -76.326       0.95246     -166.62      
 4.1          0.95432     -166.48       0.29877     -76.79        0.29877     -76.79        0.95432     -167.1       
 4.2          0.95606     -166.92       0.29317     -77.238       0.29317     -77.238       0.95606     -167.56      
 4.3          0.95768     -167.34       0.28783     -77.671       0.28783     -77.671       0.95768     -168         
 4.4          0.9592      -167.74       0.28273     -78.089       0.28273     -78.089       0.9592      -168.43      
 4.5          0.96062     -168.14       0.27787     -78.494       0.27787     -78.494       0.96062     -168.85      
 4.6          0.96195     -168.51       0.27322     -78.886       0.27322     -78.886       0.96195     -169.26      
 4.7          0.9632      -168.88       0.26878     -79.267       0.26878     -79.267       0.9632      -169.66      
 4.8          0.96438     -169.23       0.26454     -79.637       0.26454     -79.637       0.96438     -170.04      
 4.9          0.96548     -169.58       0.26048     -79.996       0.26048     -79.996       0.96548     -170.41      
 5            0.96652     -169.91       0.2566      -80.345       0.2566      -80.345       0.96652     -170.78      
 5.1          0.9675      -170.23       0.25289     -80.686       0.25289     -80.686       0.9675      -171.14      
 5.2          0.96842     -170.55       0.24934     -81.018       0.24934     -81.018       0.96842     -171.49      
 5.3          0.96929     -170.85       0.24594     -81.341       0.24594     -81.341       0.96929     -171.83      
 5.4          0.97011     -171.15       0.24268     -81.657       0.24268     -81.657       0.97011     -172.16      
 5.5          0.97088     -171.44       0.23957     -81.966       0.23957     -81.966       0.97088     -172.49      
 5.6          0.97161     -171.72       0.23659     -82.268       0.23659     -82.268       0.97161     -172.81      
 5.7          0.9723      -172          0.23374     -82.564       0.23374     -82.564       0.9723      -173.13      
 5.8          0.97295     -172.27       0.231       -82.854       0.231       -82.854       0.97295     -173.44      
 5.9          0.97357     -172.53       0.22839     -83.138       0.22839     -83.138       0.97357     -173.75      
 6            0.97415     -172.79       0.22588     -83.418       0.22588     -83.418       0.97415     -174.05      
 6.1          0.97471     -173.04       0.22349     -83.692       0.22349     -83.692       0.97471     -174.35      
 6.2          0.97523     -173.28       0.2212      -83.961       0.2212      -83.961       0.97523     -174.64      
 6.3          0.97572     -173.52       0.21901     -84.226       0.21901     -84.226       0.97572     -174.93      
 6.4          0.97619     -173.76       0.21691     -84.487       0.21691     -84.487       0.97619     -175.22      
 6.5          0.97663     -173.99       0.21491     -84.745       0.21491     -84.745       0.97663     -175.5       
 6.6          0.97705     -174.21       0.213       -84.998       0.213       -84.998       0.97705     -175.78      
 6.7          0.97745     -174.44       0.21117     -85.249       0.21117     -85.249       0.97745     -176.06      
 6.8          0.97782     -174.65       0.20943     -85.496       0.20943     -85.496       0.97782     -176.34      
 6.9          0.97818     -174.87       0.20777     -85.74        0.20777     -85.74        0.97818     -176.61      
 7            0.97851     -175.08       0.20619     -85.982       0.20619     -85.982       0.97851     -176.89      
 7.1          0.97883     -175.28       0.20469     -86.221       0.20469     -86.221       0.97883     -177.16      
 7.2          0.97912     -175.49       0.20326     -86.458       0.20326     -86.458       0.97912     -177.43      
 7.3          0.9794      -175.69       0.20191     -86.693       0.20191     -86.693       0.9794      -177.7       
 7.4          0.97967     -175.88       0.20063     -86.926       0.20063     -86.926       0.97967     -177.97      
 7.5          0.97991     -176.08       0.19942     -87.158       0.19942     -87.158       0.97991     -178.24      
 7.6          0.98015     -176.27       0.19827     -87.388       0.19827     -87.388       0.98015     -178.5       
 7.7          0.98036     -176.46       0.1972      -87.616       0.1972      -87.616       0.98036     -178.77      
 7.8          0.98057     -176.65       0.19619     -87.843       0.19619     -87.843       0.98057     -179.04      
 7.9          0.98075     -176.83       0.19524     -88.07        0.19524     -88.07        0.98075     -179.31      
 8            0.98093     -177.01       0.19436     -88.295       0.19436     -88.295       0.98093     -179.58      
 8.1          0.98109     -177.19       0.19354     -88.52        0.19354     -88.52        0.98109     -179.85      
 8.2          0.98124     -177.37       0.19279     -88.744       0.19279     -88.744       0.98124      179.88      
 8.3          0.98138     -177.54       0.19209     -88.968       0.19209     -88.968       0.98138      179.6       
 8.4          0.9815      -177.71       0.19146     -89.192       0.19146     -89.192       0.9815       179.33      
 8.5          0.98161     -177.89       0.19089     -89.416       0.19089     -89.416       0.98161      179.05      
 8.6          0.98171     -178.06       0.19037     -89.64        0.19037     -89.64        0.98171      178.78      
 8.7          0.9818      -178.22       0.18992     -89.864       0.18992     -89.864       0.9818       178.5       
 8.8          0.98188     -178.39       0.18953     -90.088       0.18953     -90.088       0.98188      178.21      
 8.9          0.98194     -178.55       0.18919     -90.314       0.18919     -90.314       0.98194      177.93      
 9            0.98199     -178.72       0.18892     -90.54        0.18892     -90.54        0.98199      177.64      
 9.1          0.98203     -178.88       0.1887      -90.767       0.1887      -90.767       0.98203      177.35      
 9.2          0.98206     -179.04       0.18855     -90.995       0.18855     -90.995       0.98206      177.05      
 9.3          0.98208     -179.2        0.18845     -91.225       0.18845     -91.225       0.98208      176.75      
 9.4          0.98209     -179.36       0.18842     -91.456       0.18842     -91.456       0.98209      176.45      
 9.5          0.98208     -179.52       0.18844     -91.689       0.18844     -91.689       0.98208      176.14      
 9.6          0.98207     -179.67       0.18853     -91.924       0.18853     -91.924       0.98207      175.83      
 9.7          0.98204     -179.83       0.18868     -92.161       0.18868     -92.161       0.98204      175.51      
 9.8          0.982       -179.99       0.1889      -92.4         0.1889      -92.4         0.982        175.18      
 9.9          0.98194      179.86       0.18918     -92.642       0.18918     -92.642       0.98194      174.86      
 10           0.98188      179.71       0.18953     -92.887       0.18953     -92.887       0.98188      174.52      
 10.1         0.9818       179.55       0.18994     -93.135       0.18994     -93.135       0.9818       174.18      
 10.2         0.9817       179.4        0.19042     -93.386       0.19042     -93.386       0.9817       173.83      
 10.3         0.9816       179.25       0.19097     -93.641       0.19097     -93.641       0.9816       173.47      
 10.4         0.98147      179.1        0.1916      -93.899       0.1916      -93.899       0.98147      173.11      
 10.5         0.98134      178.94       0.19229     -94.162       0.19229     -94.162       0.98134      172.73      
 10.6         0.98119      178.79       0.19307     -94.429       0.19307     -94.429       0.98119      172.35      
 10.7         0.98102      178.64       0.19392     -94.701       0.19392     -94.701       0.98102      171.96      
 10.8         0.98083      178.49       0.19485     -94.978       0.19485     -94.978       0.98083      171.55      
 10.9         0.98063      178.34       0.19587     -95.261       0.19587     -95.261       0.98063      171.14      
 11           0.98041      178.19       0.19697     -95.549       0.19697     -95.549       0.98041      170.72      
 11.1         0.98017      178.03       0.19817     -95.844       0.19817     -95.844       0.98017      170.28      
 11.2         0.97991      177.88       0.19946     -96.146       0.19946     -96.146       0.97991      169.83      
 11.3         0.97962      177.73       0.20084     -96.454       0.20084     -96.454       0.97962      169.36      
 11.4         0.97932      177.58       0.20233     -96.771       0.20233     -96.771       0.97932      168.88      
 11.5         0.97899      177.42       0.20392     -97.096       0.20392     -97.096       0.97899      168.39      
 11.6         0.97863      177.27       0.20563     -97.43        0.20563     -97.43        0.97863      167.87      
 11.7         0.97825      177.11       0.20745     -97.773       0.20745     -97.773       0.97825      167.34      
 11.8         0.97783      176.96       0.2094      -98.126       0.2094      -98.126       0.97783      166.79      
 11.9         0.97738      176.8        0.21147     -98.491       0.21147     -98.491       0.97738      166.22      
 12           0.9769       176.64       0.21368     -98.867       0.21368     -98.867       0.9769       165.62      
 12.1         0.97639      176.48       0.21603     -99.256       0.21603     -99.256       0.97639      165.01      
 12.2         0.97583      176.32       0.21854     -99.659       0.21854     -99.659       0.97583      164.36      
 12.3         0.97523      176.16       0.22121     -100.08       0.22121     -100.08       0.97523      163.69      
 12.4         0.97458      175.99       0.22405     -100.51       0.22405     -100.51       0.97458      162.99      
 12.5         0.97388      175.83       0.22706     -100.96       0.22706     -100.96       0.97388      162.25      
 12.6         0.97313      175.66       0.23028     -101.43       0.23028     -101.43       0.97313      161.49      
 12.7         0.97231      175.49       0.2337      -101.92       0.2337      -101.92       0.97231      160.68      
 12.8         0.97143      175.32       0.23734     -102.42       0.23734     -102.42       0.97143      159.83      
 12.9         0.97047      175.14       0.24121     -102.96       0.24121     -102.96       0.97047      158.94      
 13           0.96944      174.96       0.24534     -103.52       0.24534     -103.52       0.96944      158         
 13.1         0.96831      174.78       0.24974     -104.1        0.24974     -104.1        0.96831      157.01      
 13.2         0.96709      174.6        0.25443     -104.72       0.25443     -104.72       0.96709      155.97      
 13.3         0.96576      174.41       0.25943     -105.37       0.25943     -105.37       0.96576      154.86      
 13.4         0.96431      174.22       0.26477     -106.05       0.26477     -106.05       0.96431      153.68      
 13.5         0.96273      174.02       0.27048     -106.78       0.27048     -106.78       0.96273      152.42      
 13.6         0.96099      173.82       0.27658     -107.54       0.27658     -107.54       0.96099      151.09      
 13.7         0.95908      173.62       0.28312     -108.36       0.28312     -108.36       0.95908      149.66      
 13.8         0.95699      173.41       0.29012     -109.23       0.29012     -109.23       0.95699      148.13      
 13.9         0.95468      173.2        0.29762     -110.15       0.29762     -110.15       0.95468      146.49      
 14           0.95214      172.99       0.30567     -111.14       0.30567     -111.14       0.95214      144.73      
 14.1         0.94932      172.77       0.31432     -112.2        0.31432     -112.2        0.94932      142.82      
 14.2         0.94619      172.54       0.32362     -113.35       0.32362     -113.35       0.94619      140.76      
 14.3         0.94271      172.31       0.33363     -114.58       0.33363     -114.58       0.94271      138.53      
 14.4         0.93883      172.09       0.34439     -115.91       0.34439     -115.91       0.93883      136.1       
 14.5         0.93449      171.86       0.35599     -117.35       0.35599     -117.35       0.93449      133.44      
 14.6         0.92964      171.63       0.36847     -118.92       0.36847     -118.92       0.92964      130.54      
 14.7         0.9242       171.4        0.3819      -120.63       0.3819      -120.63       0.9242       127.34      
 14.8         0.9181       171.18       0.39635     -122.5        0.39635     -122.5        0.9181       123.82      
 14.9         0.91125      170.98       0.41185     -124.55       0.41185     -124.55       0.91125      119.92      
 15           0.90357      170.8        0.42844     -126.8        0.42844     -126.8        0.90357      115.6       
 15.1         0.89498      170.65       0.4461      -129.28       0.4461      -129.28       0.89498      110.78      
 15.2         0.88542      170.55       0.46479     -132.02       0.46479     -132.02       0.88542      105.4       
 15.3         0.87486      170.52       0.48437     -135.05       0.48437     -135.05       0.87486      99.38       
 15.4         0.86335      170.58       0.50461     -138.39       0.50461     -138.39       0.86335      92.636      
 15.5         0.85102      170.77       0.52514     -142.08       0.52514     -142.08       0.85102      85.078      
 15.6         0.83818      171.11       0.5454      -146.13       0.5454      -146.13       0.83818      76.624      
 15.7         0.82534      171.64       0.56464     -150.57       0.56464     -150.57       0.82534      67.209      
 15.8         0.81326      172.4        0.58191     -155.4        0.58191     -155.4        0.81326      56.806      
 15.9         0.80293      173.39       0.59608     -160.58       0.59608     -160.58       0.80293      45.445      
 16           0.79547      174.59       0.60599     -166.08       0.60599     -166.08       0.79547      33.241      
 16.1         0.79194      175.96       0.61061     -171.82       0.61061     -171.82       0.79194      20.405      
 16.2         0.79301      177.38       0.6092      -177.69       0.6092      -177.69       0.79301      7.2346      
 16.3         0.79882      178.74       0.60157      176.41       0.60157      176.41       0.79882     -5.92        
 16.4         0.80881      179.94       0.58807      170.61       0.58807      170.61       0.80881     -18.714      
 16.5         0.82196     -179.1        0.56955      165.02       0.56955      165.02       0.82196     -30.859      
 16.6         0.83702     -178.4        0.54717      159.72       0.54717      159.72       0.83702     -42.156      
 16.7         0.85282     -177.96       0.52221      154.77       0.52221      154.77       0.85282     -52.5        
 16.8         0.8684      -177.74       0.49587      150.2        0.49587      150.2        0.8684      -61.865      
 16.9         0.88312     -177.69       0.46914      146.01       0.46914      146.01       0.88312     -70.28       
 17           0.89663     -177.78       0.44278      142.2        0.44278      142.2        0.89663     -77.81       
 17.1         0.90875     -177.97       0.41733      138.75       0.41733      138.75       0.90875     -84.536      
 17.2         0.91949     -178.21       0.39311      135.62       0.39311      135.62       0.91949     -90.542      
 17.3         0.9289      -178.5        0.37032      132.79       0.37032      132.79       0.9289      -95.912      
 17.4         0.93712     -178.81       0.34902      130.23       0.34902      130.23       0.93712     -100.72      
 17.5         0.94426     -179.14       0.32921      127.91       0.32921      127.91       0.94426     -105.04      
 17.6         0.95046     -179.46       0.31086      125.8        0.31086      125.8        0.95046     -108.94      
 17.7         0.95584     -179.78       0.29387      123.88       0.29387      123.88       0.95584     -112.46      
 17.8         0.96053      179.9        0.27817      122.13       0.27817      122.13       0.96053     -115.65      
 17.9         0.96462      179.59       0.26366      120.52       0.26366      120.52       0.96462     -118.55      
 18           0.96818      179.3        0.25024      119.05       0.25024      119.05       0.96818     -121.2       
 18.1         0.97131      179.01       0.23781      117.7        0.23781      117.7        0.97131     -123.62      
 18.2         0.97406      178.74       0.22631      116.45       0.22631      116.45       0.97406     -125.85      
 18.3         0.97648      178.47       0.21563      115.29       0.21563      115.29       0.97648     -127.9       
 18.4         0.97861      178.22       0.20571      114.21       0.20571      114.21       0.97861     -129.79      
 18.5         0.98051      177.97       0.19649      113.22       0.19649      113.22       0.98051     -131.54      
 18.6         0.98219      177.74       0.18789      112.29       0.18789      112.29       0.98219     -133.17      
 18.7         0.98369      177.51       0.17987      111.42       0.17987      111.42       0.98369     -134.68      
 18.8         0.98503      177.3        0.17237      110.6        0.17237      110.6        0.98503     -136.09      
 18.9         0.98623      177.09       0.16536      109.84       0.16536      109.84       0.98623     -137.41      
 19           0.98731      176.88       0.15878      109.12       0.15878      109.12       0.98731     -138.65      
 19.1         0.98829      176.69       0.15261      108.44       0.15261      108.44       0.98829     -139.81      
 19.2         0.98916      176.5        0.14681      107.8        0.14681      107.8        0.98916     -140.89      
 19.3         0.98996      176.32       0.14135      107.2        0.14135      107.2        0.98996     -141.92      
 19.4         0.99068      176.14       0.13621      106.63       0.13621      106.63       0.99068     -142.89      
 19.5         0.99134      175.97       0.13135      106.08       0.13135      106.08       0.99134     -143.8       
 19.6         0.99193      175.8        0.12676      105.57       0.12676      105.57       0.99193     -144.67      
 19.7         0.99248      175.64       0.12242      105.07       0.12242      105.07       0.99248     -145.49      
 19.8         0.99298      175.48       0.11831      104.61       0.11831      104.61       0.99298     -146.27      
 19.9         0.99343      175.33       0.11441      104.16       0.11441      104.16       0.99343     -147.01      
 20           0.99385      175.18       0.11071      103.73       0.11071      103.73       0.99385     -147.71      
 20.1         0.99424      175.03       0.10719      103.32       0.10719      103.32       0.99424     -148.38      
 20.2         0.99459      174.89       0.10385      102.93       0.10385      102.93       0.99459     -149.02      
 20.3         0.99492      174.75       0.10067      102.56       0.10067      102.56       0.99492     -149.64      
 20.4         0.99522      174.61       0.097635     102.2        0.097635     102.2        0.99522     -150.22      
 20.5         0.9955       174.48       0.094742     101.85       0.094742     101.85       0.9955      -150.78      
 20.6         0.99576      174.35       0.091981     101.52       0.091981     101.52       0.99576     -151.31      
 20.7         0.996        174.22       0.089343     101.19       0.089343     101.19       0.996       -151.83      
 20.8         0.99622      174.09       0.086821     100.88       0.086821     100.88       0.99622     -152.32      
 20.9         0.99643      173.97       0.084407     100.59       0.084407     100.59       0.99643     -152.79      
 21           0.99662      173.84       0.082096     100.3        0.082096     100.3        0.99662     -153.25      
 21.1         0.9968       173.72       0.079882     100.02       0.079882     100.02       0.9968      -153.69      
 21.2         0.99697      173.6        0.077758     99.748       0.077758     99.748       0.99697     -154.11      
 21.3         0.99713      173.49       0.07572      99.487       0.07572      99.487       0.99713     -154.51      
 21.4         0.99728      173.37       0.073763     99.233       0.073763     99.233       0.99728     -154.91      
 21.5         0.99741      173.26       0.071883     98.988       0.071883     98.988       0.99741     -155.28      
 21.6         0.99754      173.15       0.070076     98.75        0.070076     98.75        0.99754     -155.65      
 21.7         0.99766      173.04       0.068337     98.518       0.068337     98.518       0.99766     -156         
 21.8         0.99778      172.93       0.066663     98.294       0.066663     98.294       0.99778     -156.34      
 21.9         0.99788      172.82       0.065051     98.075       0.065051     98.075       0.99788     -156.67      
 22           0.99798      172.72       0.063498     97.862       0.063498     97.862       0.99798     -156.99      
 22.1         0.99808      172.61       0.062001     97.655       0.062001     97.655       0.99808     -157.3       
 22.2         0.99816      172.51       0.060556     97.454       0.060556     97.454       0.99816     -157.6       
 22.3         0.99825      172.41       0.059162     97.257       0.059162     97.257       0.99825     -157.89      
 22.4         0.99833      172.3        0.057817     97.066       0.057817     97.066       0.99833     -158.17      
 22.5         0.9984       172.2        0.056517     96.879       0.056517     96.879       0.9984      -158.45      
 22.6         0.99847      172.1        0.05526      96.696       0.05526      96.696       0.99847     -158.71      
 22.7         0.99854      172.01       0.054046     96.518       0.054046     96.518       0.99854     -158.97      
 22.8         0.9986       171.91       0.052871     96.344       0.052871     96.344       0.9986      -159.22      
 22.9         0.99866      171.81       0.051734     96.174       0.051734     96.174       0.99866     -159.46      
 23           0.99872      171.72       0.050634     96.007       0.050634     96.007       0.99872     -159.7       
 23.1         0.99877      171.62       0.049568     95.844       0.049568     95.844       0.99877     -159.93      
 23.2         0.99882      171.53       0.048536     95.685       0.048536     95.685       0.99882     -160.16      
 23.3         0.99887      171.43       0.047535     95.529       0.047535     95.529       0.99887     -160.38      
 23.4         0.99892      171.34       0.046565     95.376       0.046565     95.376       0.99892     -160.59      
 23.5         0.99896      171.25       0.045625     95.226       0.045625     95.226       0.99896     -160.8       
 23.6         0.999        171.16       0.044712     95.079       0.044712     95.079       0.999       -161         
 23.7         0.99904      171.07       0.043826     94.935       0.043826     94.935       0.99904     -161.2       
 23.8         0.99908      170.98       0.042966     94.793       0.042966     94.793       0.99908     -161.39      
 23.9         0.99911      170.89       0.042131     94.655       0.042131     94.655       0.99911     -161.58      
 24           0.99915      170.8        0.04132      94.518       0.04132      94.518       0.99915     -161.76      
 24.1         0.99918      170.71       0.040532     94.384       0.040532     94.384       0.99918     -161.94      
 24.2         0.99921      170.62       0.039766     94.253       0.039766     94.253       0.99921     -162.12      
 24.3         0.99924      170.54       0.039021     94.124       0.039021     94.124       0.99924     -162.29      
 24.4         0.99927      170.45       0.038296     93.996       0.038296     93.996       0.99927     -162.46      
 24.5         0.99929      170.36       0.037591     93.871       0.037591     93.871       0.99929     -162.62      
 24.6         0.99932      170.28       0.036905     93.748       0.036905     93.748       0.99932     -162.78      
 24.7         0.99934      170.19       0.036238     93.627       0.036238     93.627       0.99934     -162.94      
 24.8         0.99937      170.11       0.035588     93.508       0.035588     93.508       0.99937     -163.09      
 24.9         0.99939      170.03       0.034955     93.391       0.034955     93.391       0.99939     -163.24      
 25           0.99941      169.94       0.034338     93.276       0.034338     93.276       0.99941     -163.39      
 25.1         0.99943      169.86       0.033737     93.162       0.033737     93.162       0.99943     -163.54      
 25.2         0.99945      169.78       0.033152     93.05        0.033152     93.05        0.99945     -163.68      
 25.3         0.99947      169.69       0.032581     92.939       0.032581     92.939       0.99947     -163.82      
 25.4         0.99949      169.61       0.032024     92.83        0.032024     92.83        0.99949     -163.95      
 25.5         0.9995       169.53       0.031482     92.723       0.031482     92.723       0.9995      -164.08      
 25.6         0.99952      169.45       0.030952     92.617       0.030952     92.617       0.99952     -164.22      
 25.7         0.99954      169.37       0.030436     92.513       0.030436     92.513       0.99954     -164.34      
 25.8         0.99955      169.29       0.029931     92.41        0.029931     92.41        0.99955     -164.47      
 25.9         0.99957      169.21       0.029439     92.308       0.029439     92.308       0.99957     -164.59      
 26           0.99958      169.13       0.028959     92.208       0.028959     92.208       0.99958     -164.71      
 26.1         0.99959      169.05       0.02849      92.108       0.02849      92.108       0.99959     -164.83      
 26.2         0.99961      168.97       0.028032     92.01        0.028032     92.01        0.99961     -164.95      
 26.3         0.99962      168.89       0.027584     91.914       0.027584     91.914       0.99962     -165.06      
 26.4         0.99963      168.81       0.027147     91.818       0.027147     91.818       0.99963     -165.18      
 26.5         0.99964      168.73       0.02672      91.724       0.02672      91.724       0.99964     -165.29      
 26.6         0.99965      168.66       0.026302     91.631       0.026302     91.631       0.99965     -165.4       
 26.7         0.99966      168.58       0.025894     91.538       0.025894     91.538       0.99966     -165.5       
 26.8         0.99967      168.5        0.025495     91.447       0.025495     91.447       0.99967     -165.61      
 26.9         0.99968      168.42       0.025104     91.357       0.025104     91.357       0.99968     -165.71      
 27           0.99969      168.35       0.024722     91.268       0.024722     91.268       0.99969     -165.81      
 27.1         0.9997       168.27       0.024349     91.18        0.024349     91.18        0.9997      -165.91      
 27.2         0.99971      168.2        0.023983     91.092       0.023983     91.092       0.99971     -166.01      
 27.3         0.99972      168.12       0.023626     91.006       0.023626     91.006       0.99972     -166.11      
 27.4         0.99973      168.04       0.023276     90.921       0.023276     90.921       0.99973     -166.2       
 27.5         0.99974      167.97       0.022933     90.836       0.022933     90.836       0.99974     -166.3       
 27.6         0.99974      167.89       0.022598     90.752       0.022598     90.752       0.99974     -166.39      
 27.7         0.99975      167.82       0.022269     90.67        0.022269     90.67        0.99975     -166.48      
 27.8         0.99976      167.74       0.021948     90.587       0.021948     90.587       0.99976     -166.57      
 27.9         0.99977      167.67       0.021633     90.506       0.021633     90.506       0.99977     -166.66      
 28           0.99977      167.59       0.021324     90.426       0.021324     90.426       0.99977     -166.74      
 28.1         0.99978      167.52       0.021022     90.346       0.021022     90.346       0.99978     -166.83      
 28.2         0.99979      167.45       0.020725     90.267       0.020725     90.267       0.99979     -166.91      
 28.3         0.99979      167.37       0.020435     90.189       0.020435     90.189       0.99979     -166.99      
 28.4         0.9998       167.3        0.02015      90.111       0.02015      90.111       0.9998      -167.08      
 28.5         0.9998       167.22       0.019871     90.034       0.019871     90.034       0.9998      -167.16      
 28.6         0.99981      167.15       0.019598     89.958       0.019598     89.958       0.99981     -167.24      
 28.7         0.99981      167.08       0.01933      89.883       0.01933      89.883       0.99981     -167.31      
 28.8         0.99982      167.01       0.019067     89.808       0.019067     89.808       0.99982     -167.39      
 28.9         0.99982      166.93       0.018809     89.733       0.018809     89.733       0.99982     -167.47      
 29           0.99983      166.86       0.018556     89.66        0.018556     89.66        0.99983     -167.54      
 29.1         0.99983      166.79       0.018308     89.587       0.018308     89.587       0.99983     -167.62      
 29.2         0.99984      166.72       0.018064     89.514       0.018064     89.514       0.99984     -167.69      
 29.3         0.99984      166.64       0.017825     89.442       0.017825     89.442       0.99984     -167.76      
 29.4         0.99985      166.57       0.017591     89.371       0.017591     89.371       0.99985     -167.83      
 29.5         0.99985      166.5        0.017361     89.3         0.017361     89.3         0.99985     -167.9       
 29.6         0.99985      166.43       0.017135     89.23        0.017135     89.23        0.99985     -167.97      
 29.7         0.99986      166.36       0.016913     89.16        0.016913     89.16        0.99986     -168.04      
 29.8         0.99986      166.29       0.016695     89.091       0.016695     89.091       0.99986     -168.1       
 29.9         0.99986      166.22       0.016482     89.023       0.016482     89.023       0.99986     -168.17      
 30           0.99987      166.15       0.016272     88.954       0.016272     88.954       0.99987     -168.24      
 30.1         0.99987      166.07       0.016066     88.887       0.016066     88.887       0.99987     -168.3       
 30.2         0.99987      166          0.015863     88.82        0.015863     88.82        0.99987     -168.37      
 30.3         0.99988      165.93       0.015664     88.753       0.015664     88.753       0.99988     -168.43      
 30.4         0.99988      165.86       0.015469     88.687       0.015469     88.687       0.99988     -168.49      
 30.5         0.99988      165.79       0.015277     88.621       0.015277     88.621       0.99988     -168.55      
 30.6         0.99989      165.72       0.015088     88.555       0.015088     88.555       0.99989     -168.61      
 30.7         0.99989      165.65       0.014903     88.491       0.014903     88.491       0.99989     -168.67      
 30.8         0.99989      165.58       0.014721     88.426       0.014721     88.426       0.99989     -168.73      
 30.9         0.99989      165.51       0.014541     88.362       0.014541     88.362       0.99989     -168.79      
 31           0.9999       165.45       0.014365     88.298       0.014365     88.298       0.9999      -168.85      
