! Touchstone file exported from HFSS 2020.1.0
!        File:           C:/Users/zhu/Documents/Projects/Package simulation/WSGPA1/hfss/PG_DFN_3x4_1_pod.aedt
!        Generated:      7:43:33 PM  May 18, 2021
!        Design:         package_bwangle
!        Project:        PG_DFN_3x4_1_pod
!        Setup:          Setup1
!        Solution:       Sweep
!
! Variables:
!        LH_G1 = 5mil
!        Rw = 0.5mil
!        dy_D = 0.155mm
!        dy_G = 4.8mil
!        dy_lead = 0.5mm
!        x0 = -1.28288mm
!        xoff_D = 58mil
!        xoff_cd = 0.457mm
!        xoff_cg = 0.104mm
!        xoffset_G1 = 7.2mil
!        xsize_c = 0.1mm
!        xsize_fet = 0.64mm
!        xsize_fl = 1.7mm
!        xsize_lead = 0.4mm
!        xsize_pcb = 50mm
!        xsize_wf = 3mm
!        y0 = 0
!        ysize_c = 0.47mm
!        ysize_fet = 0.83mm
!        ysize_fl = 3.3mm
!        ysize_lead = 0.22mm
!        ysize_pcb = 50mm
!        ysize_trace = 0.72mm
!        ysize_wf = 4mm
!        ysize_wp = 7.2mm
!        zoff_lead = 0.02mm
!        zsize_fet = 4mil
!        zsize_insulator = 20mil
!        zsize_lead = 0.87mm
!        zsize_trace = 35um
!        zsize_wf = 0.85mm
!        zsize_wp = 3.6mm
!
# GHZ S MA R 50.000000
! Terminal data exported
! Port[1] = trace_i_T1
! Port[2] = trace_o_T1
! Port[3] = Cg_T1
! Port[4] = Cd_T1
0                              0.000179970523820225 0                2.70674231851037E-07 0                0.999730937876052 0                2.78958619925613E-07 180              
                2.70675691640032E-07 0                0.000392814023210009 0                2.7876493621711E-07 180              0.99961019195689 0                
                0.999730937982918 0                2.78764289025121E-07 180              0.000213166675180995 0                2.77076997052476E-07 0                
                2.78958753233474E-07 180              0.9996101919387  0                2.77076637485553E-07 0                0.000311814059989229 0                
! Gamma         0.0056718518376746 0                0                0                0                0                0                0                
!               0                0                0.00568332021755058 0                0                0                0                0                
!               0                0                0                0                0                0                0                0                
!               0                0                0                0                0                0                0                0                
! Port Impedance50               0                0                0                0                0                0                0                
!               0                0                50               0                0                0                0                0                
!               0                0                0                0                50               0                0                0                
!               0                0                0                0                0                0                50               0                

1E-06                          0.000179970499674219 -0.0109069247944504 2.70682772709186E-07 0.452928345110283 0.999730937992033 -3.81465654020677E-05 2.78961092618616E-07 -179.762444353831 
                2.70684232469057E-07 0.452926382995337 0.000392813924732532 -0.00167086715046066 2.78767408856293E-07 -179.762373478942 0.99961019205206 -4.01680616496733E-05 
                0.999730938098899 -3.81465838147461E-05 2.78766761674271E-07 -179.762372741165 0.000213166634083486 0.0244975116054617 2.77085337406562E-07 0.442499658743788 
                2.78961225914836E-07 -179.762444980691 0.99961019203387 -4.01681588876667E-05 2.77084977890644E-07 0.442501301795852 0.000311814058913735 0.018666866137852 
! Gamma         0.00567185217691622 3.68743534990189E-05 0                0                0                0                0                0                
!               0                0                0.00568332055777951 3.69225622066387E-05 0                0                0                0                
!               0                0                0                0                0                0                0                0                
!               0                0                0                0                0                0                0                0                
! Port Impedance50               0                0                0                0                0                0                0                
!               0                0                50               0                0                0                0                0                
!               0                0                0                0                50               0                0                0                
!               0                0                0                0                0                0                50               0                

1.58489319246111E-06           0.000179970463168202 -0.0172863145045115 2.7069568500279E-07 0.717820072455717 0.999730938167384 -6.04581602051413E-05 2.78964831006903E-07 -179.623503123678 
                2.70697144718632E-07 0.717816963015025 0.000392813775845772 -0.00264815040886345 2.7877114716319E-07 -179.623390797764 0.999610192195947 -6.3662012069203E-05 
                0.999730938274249 -6.04581893872257E-05 2.78770499996238E-07 -179.623389628499 0.000213166571948534 0.0388258717478171 2.77097946595855E-07 0.70129328501275 
                2.78964964285522E-07 -179.623504117156 0.999610192177757 -6.36621661808039E-05 2.77097587157042E-07 0.701295888834521 0.000311814057287559 0.029584935939675 
! Gamma         0.00567185268981102 5.84419101409658E-05 0                0                0                0                0                0                
!               0                0                0.00568332107216701 5.85183157785544E-05 0                0                0                0                
!               0                0                0                0                0                0                0                0                
!               0                0                0                0                0                0                0                0                
! Port Impedance50               0                0                0                0                0                0                0                
!               0                0                50               0                0                0                0                0                
!               0                0                0                0                50               0                0                0                
!               0                0                0                0                0                0                50               0                

2.51188643150958E-06           0.000179970371469243 -0.0273969767003252 2.70728116489602E-07 1.13757668606565 0.999730938607845 -9.58194414279546E-05 2.78974221186932E-07 -179.403306398134 
                2.70729576094884E-07 1.13757175913586 0.000392813401859147 -0.00419705321803303 2.78780537138677E-07 -179.403128386357 0.999610192557374 -0.000100897189399042 
                0.99973093871471 -9.58194876782656E-05 2.78779890009576E-07 -179.403126533329 0.000213166415871603 0.0615345905927712 2.77129616905162E-07 1.11138972780028 
                2.78974354421344E-07 -179.403307972579 0.999610192539184 -0.000100897433648542 2.77129257659994E-07 1.11139385362349 0.000311814053201993 0.0468887520686868 
! Gamma         0.0056718539781445 9.26241787848091E-05 0                0                0                0                0                0                
!               0                0                0.00568332236425001 9.27452735002297E-05 0                0                0                0                
!               0                0                0                0                0                0                0                0                
!               0                0                0                0                0                0                0                0                
! Port Impedance50               0                0                0                0                0                0                0                
!               0                0                50               0                0                0                0                0                
!               0                0                0                0                50               0                0                0                
!               0                0                0                0                0                0                50               0                

3.98107170553497E-06           0.000179970141131931 -0.0434213396691649 2.70809563494985E-07 1.80257362004483 0.999730939714233 -0.000151862445381648 2.78997806822024E-07 -179.054359042241 
                2.70811022822759E-07 1.80256581616695 0.000392812462447259 -0.00665195138922184 2.78804122259338E-07 -179.054076963532 0.999610193465237 -0.000159910073707031 
                0.999730939821097 -0.00015186251868275 2.788034752253E-07 -179.054074027204 0.000213166023817851 0.097524681899322 2.77209153092419E-07 1.76109488831759 
                2.78997939945407E-07 -179.054361537129 0.999610193447048 -0.000159910460812709 2.77208794333445E-07 1.76110142350311 0.00031181404293449 0.0743128219545741 
! Gamma         0.00567185721429189 0.000146799403533022 0                0                0                0                0                0                
!               0                0                0.00568332560981574 0.000146991325486423 0                0                0                0                
!               0                0                0                0                0                0                0                0                
!               0                0                0                0                0                0                0                0                
! Port Impedance50               0                0                0                0                0                0                0                
!               0                0                50               0                0                0                0                0                
!               0                0                0                0                50               0                0                0                
!               0                0                0                0                0                0                50               0                

6.30957344480193E-06           0.000179969562551132 -0.0688184157672948 2.71014040685873E-07 2.85543968167928 0.999730942493353 -0.000240681237188539 2.7905704223458E-07 -178.501477650018 
                2.71015499317881E-07 2.85542733235415 0.000392810102751548 -0.0105429124070111 2.78863356375649E-07 -178.501030788082 0.999610195745686 -0.000253435630201965 
                0.999730942600214 -0.000240681353360171 2.78862709580303E-07 -178.501026136402 0.000213165038984058 0.154561937386053 2.77408837914181E-07 2.7897988496626  
                2.79057175079167E-07 -178.501481602394 0.999610195727497 -0.000253436243708422 2.77408480375079E-07 2.78980919212173 0.000311814017111966 0.117774533563324 
! Gamma         0.0056718653431266 0.000232661268304345 0                0                0                0                0                0                
!               0                0                0.00568333376230827 0.000232965443159409 0                0                0                0                
!               0                0                0                0                0                0                0                0                
!               0                0                0                0                0                0                0                0                
! Port Impedance50               0                0                0                0                0                0                0                
!               0                0                50               0                0                0                0                0                
!               0                0                0                0                50               0                0                0                
!               0                0                0                0                0                0                50               0                

1E-05                          0.00017996810922422 -0.109070754792041 2.71526981990905E-07 4.51982467681339 0.999730949474185 -0.000381436065155129 2.79205777971962E-07 -177.625867497378 
                2.71528438883417E-07 4.51980517964444 0.000392804175465573 -0.0167105045620009 2.79012088831489E-07 -177.625160074649 0.999610201473914 -0.000401649466987608 
                0.99973094958104 -0.000381436249263659 2.79011442635112E-07 -177.625152710525 0.000213162564945512 0.244947174803287 2.77909787730405E-07 4.41618118906596 
                2.79205910116851E-07 -177.625873754503 0.999610201455726 -0.000401650439271306 2.77909433246731E-07 4.41619752090075 0.000311813952048598 0.186646711734621 
! Gamma         0.00567188576183624 0.000368742834260516 0                0                0                0                0                0                
!               0                0                0.00568335424044363 0.000369224915165999 0                0                0                0                
!               0                0                0                0                0                0                0                0                
!               0                0                0                0                0                0                0                0                
! Port Impedance50               0                0                0                0                0                0                0                
!               0                0                50               0                0                0                0                0                
!               0                0                0                0                50               0                0                0                
!               0                0                0                0                0                0                50               0                

1.58489319246111E-05           0.000179964458646857 -0.17286914403044 2.72811159664952E-07 7.14076004612013 0.999730967009232 -0.000604463806658071 2.79579027036863E-07 -176.240690884906 
                2.72812612239044E-07 7.14072944060085 0.00039278928680685 -0.0264888019005381 2.79385329493338E-07 -176.239572890967 0.999610215862558 -0.000636496112264419 
                0.99973096711607 -0.000604464098406248 2.79384684797741E-07 -176.239561252503 0.000213156348877695 0.388147479819057 2.79164133406833E-07 6.97802972078587 
                2.79579157427989E-07 -176.240700774135 0.999610215844373 -0.000636497652997306 2.79163786543424E-07 6.97805536969009 0.000311813787354299 0.29576197695762 
! Gamma         0.00567193705131592 0.000584416311754584 0                0                0                0                0                0                
!               0                0                0.005683405679194 0.000585180343564408 0                0                0                0                
!               0                0                0                0                0                0                0                0                
!               0                0                0                0                0                0                0                0                
! Port Impedance50               0                0                0                0                0                0                0                
!               0                0                50               0                0                0                0                0                
!               0                0                0                0                50               0                0                0                
!               0                0                0                0                0                0                50               0                

2.51188643150958E-05           0.000179955288904435 -0.273993650566381 2.76010398857278E-07 11.2288166441945 0.999731011055207 -0.000957725462392976 2.8051433786165E-07 -174.055503715612 
                2.76011840895734E-07 11.2287692758293 0.000392751888253259 -0.0419995880829415 2.80320618212957E-07 -174.053744416893 0.999610252005121 -0.00100847820756609 
                0.999731011162006 -0.000957725924606795 2.8031997726361E-07 -174.053726100866 0.000213140724956618 0.614903045467743 2.82290209545506E-07 10.9768189638162 
                2.8051446387132E-07 -174.055519279956 0.999610251986943 -0.00100848064853585 2.8228988148781E-07 10.976858706685  0.000311813365697901 0.468539651593338 
! Gamma         0.005672065884664 0.000926230682031207 0                0                0                0                0                0                
!               0                0                0.0056835348874931 0.00092744153138616 0                0                0                0                
!               0                0                0                0                0                0                0                0                
!               0                0                0                0                0                0                0                0                
! Port Impedance50               0                0                0                0                0                0                0                
!               0                0                50               0                0                0                0                0                
!               0                0                0                0                50               0                0                0                
!               0                0                0                0                0                0                50               0                

3.98107170553497E-05           0.000179932256141804 -0.434308490594729 2.83886827594676E-07 17.4605836732335 0.999731121693255 -0.00151675752293867 2.82849728862241E-07 -170.632022551127 
                2.83888244989455E-07 17.4605127833127 0.000392657947752257 -0.06663521543449 2.82655947595204E-07 -170.629283258143 0.999610342790646 -0.00159713533619573 
                0.999731121799952 -0.00151675825479801 2.8265531591055E-07 -170.62925473357 0.000213101417251192 0.973483605556545 2.89993254582204E-07 17.0829672069476 
                2.82849844013473E-07 -170.632046794939 0.999610342772486 -0.00159713920118043 2.8999297177935E-07 17.0830268459154 0.000311812256347064 0.741743394138947 
! Gamma         0.00567238949940297 0.00146794982227686 0                0                0                0                0                0                
!               0                0                0.00568385944406646 0.00146986865246503 0                0                0                0                
!               0                0                0                0                0                0                0                0                
!               0                0                0                0                0                0                0                0                
! Port Impedance50               0                0                0                0                0                0                0                
!               0                0                50               0                0                0                0                0                
!               0                0                0                0                50               0                0                0                
!               0                0                0                0                0                0                50               0                

6.30957344480193E-05           0.000179874404175687 -0.688562850621521 3.02764843154489E-07 26.478184173381  0.999731399600686 -0.00239937998828229 2.88630392216386E-07 -165.358174751389 
                3.02766208225577E-07 26.4780856598301 0.000392421982528008 -0.105890019542937 2.88436420728767E-07 -165.35401746083 0.999610570830491 -0.00252653190201532 
                0.999731399707126 -0.00239938114541364 2.88435811443959E-07 -165.353974148281 0.000213002289187417 1.53859833869488 3.084910293838E-07 25.9519932602077 
                2.88630480978735E-07 -165.358211581357 0.999610570812378 -0.00252653801290652 3.08490849523753E-07 25.9520766192335 0.000311809153776284 1.1722329047131  
! Gamma         0.00567320238287483 0.00232643666770769 0                0                0                0                0                0                
!               0                0                0.00568467469331933 0.00232947686624463 0                0                0                0                
!               0                0                0                0                0                0                0                0                
!               0                0                0                0                0                0                0                0                
! Port Impedance50               0                0                0                0                0                0                0                
!               0                0                50               0                0                0                0                0                
!               0                0                0                0                50               0                0                0                
!               0                0                0                0                0                0                50               0                

0.0001                         0.000179729110094323 -1.09221632584758 3.45642860270978E-07 38.2316266740193 0.999732097655114 -0.00378477182039091 3.02650707444528E-07 -157.547318557402 
                3.45644134576428E-07 38.2315076852247 0.000391829281473126 -0.168942702741133 3.02456075137549E-07 -157.541369406688 0.999611143621313 -0.00398534519048014 
                0.999732097760911 -0.00378477364322315 3.02455517248769E-07 -157.541307346601 0.000212750833107233 2.42150458818741 3.50654483513128E-07 37.5930346072324 
                3.02650734916716E-07 -157.547371391363 0.999611143603315 -0.00398535481708126 3.50654513646457E-07 37.5931363460836 0.000311799377991959 1.84452817618199 
! Gamma         0.0056752442538382 0.00368672761293221 0                0                0                0                0                0                
!               0                0                0.0056867225068559 0.00369154225127138 0                0                0                0                
!               0                0                0                0                0                0                0                0                
!               0                0                0                0                0                0                0                0                
! Port Impedance50               0                0                0                0                0                0                0                
!               0                0                50               0                0                0                0                0                
!               0                0                0                0                50               0                0                0                
!               0                0                0                0                0                0                50               0                

0.000158489319246111           0.000179364296527326 -1.7347097632633 4.34974771389128E-07 51.1642943350762 0.999733850979308 -0.00592684301710093 3.35215512251656E-07 -146.907996942703 
                4.34975937052994E-07 51.1641772877924 0.0003903405912326 -0.272232002981232 3.35018515087377E-07 -146.900450466751 0.99961258228571 -0.00624095299230433 
                0.999733851083489 -0.00592684586191591 3.35018062913931E-07 -146.900371498028 0.000212103903494382 3.76996747359026 4.38937003459942E-07 50.5321029972532 
                3.35215410296713E-07 -146.908064368617 0.999612582268   -0.00624096801651193 4.38937397222365E-07 50.5322045898958 0.000311762493886462 2.87034016778361 
! Gamma         0.00568037320180599 0.00584137346247165 0                0                0                0                0                0                
!               0                0                0.00569186638189268 0.00584898921450835 0                0                0                0                
!               0                0                0                0                0                0                0                0                
!               0                0                0                0                0                0                0                0                
! Port Impedance50               0                0                0                0                0                0                0                
!               0                0                50               0                0                0                0                0                
!               0                0                0                0                50               0                0                0                
!               0                0                0                0                0                0                50               0                

0.000251188643150958           0.000178448871784099 -2.76401429672783 6.03092929730941E-07 62.7721029612698 0.99973825445744 -0.00910830617558452 4.05243770677068E-07 -134.43065818487 
                6.0309403063082E-07 62.7720106451757 0.000386601873757148 -0.449517952244609 4.05039761124198E-07 -134.422844307086 0.999616195301185 -0.00959109862357686 
                0.999738254557561 -0.00910831050843036 4.05039488813971E-07 -134.422761952077 0.00021038562007911 5.70320844167728 6.05899204319944E-07 62.2699660797821 
                4.05243438117244E-07 -134.430729010007 0.999616195284195 -0.00959112150804717 6.05900124440246E-07 62.2700478082078 0.000311594897660358 4.33845304594045 
! Gamma         0.00569325653661418 0.00925120100342803 0                0                0                0                0                0                
!               0                0                0.00570478721180295 0.00926321169772502 0                0                0                0                
!               0                0                0                0                0                0                0                0                
!               0                0                0                0                0                0                0                0                
! Port Impedance50               0                0                0                0                0                0                0                
!               0                0                50               0                0                0                0                0                
!               0                0                0                0                50               0                0                0                
!               0                0                0                0                0                0                50               0                

0.000398107170553497           0.000176155515656411 -4.44014275578549 8.9332274500386E-07 71.4709243968666 0.999749311504265 -0.0133006787241146 5.40775646451868E-07 -122.535495606203 
                8.93323856848062E-07 71.4708651916167 0.000377215491291707 -0.786830854873801 5.40560240284626E-07 -122.529316534929 0.999625266362885 -0.0140059821987313 
                0.999749311594182 -0.0133006848910082 5.40560202884218E-07 -122.529250582363 0.000205533190543648 7.93538811917377 8.95113859815947E-07 71.1459541105949 
                5.40775001037454E-07 -122.535553332331 0.999625266347681 -0.0140060147765986 8.95115401213021E-07 71.1460082675831 0.00031074554240355 6.03943358585622 
! Gamma         0.00572561801051147 0.0146352851694047 0                0                0                0                0                0                
!               0                0                0.00573724286913841 0.0146540841254493 0                0                0                0                
!               0                0                0                0                0                0                0                0                
!               0                0                0                0                0                0                0                0                
! Port Impedance50               0                0                0                0                0                0                0                
!               0                0                50               0                0                0                0                0                
!               0                0                0                0                50               0                0                0                
!               0                0                0                0                0                0                50               0                

0.000630957344480193           0.000170435287639733 -7.28452303046642 1.36509200041607E-06 77.1386607685796 0.999777064446284 -0.0165617597829049 7.75775995386847E-07 -113.456997061469 
                1.36509303799592E-06 77.1386328689509 0.00035367583113289 -1.57072643606381 7.75579833138557E-07 -113.453490220868 0.999648028446086 -0.0174412158744635 
                0.999777064510551 -0.0165617667691553 7.75579992433978E-07 -113.453453724874 0.000190830786995936 7.83668908622878 1.36605841452761E-06 76.9831159085643 
                7.75775157231976E-07 -113.457030388515 0.999648028435244 -0.0174412528109827 1.36606027996901E-06 76.9831433114663 0.000306605978520201 6.22569005122579 
! Gamma         0.00580690635769772 0.0230883513413146 0                0                0                0                0                0                
!               0                0                0.00581876779442507 0.0231172033129882 0                0                0                0                
!               0                0                0                0                0                0                0                0                
!               0                0                0                0                0                0                0                0                
! Port Impedance50               0                0                0                0                0                0                0                
!               0                0                50               0                0                0                0                0                
!               0                0                0                0                50               0                0                0                
!               0                0                0                0                0                0                50               0                

0.001                          0.000156358067923845 -12.6482639861574 2.09328228884128E-06 80.2629326017638 0.999846707595486 -0.00826232672849953 1.14082528120384E-06 -108.073799095645 
                2.09328229785216E-06 80.2629326349508 0.000294937908278522 -4.13669630728799 1.14087036433297E-06 -108.072389369725 0.999705127663333 -0.00870694548823849 
                0.999846707595468 -0.00826232669178489 1.14087036246621E-06 -108.072389384596 0.000156372704886324 -12.6369015007273 2.09344200807916E-06 80.2653772607572 
                1.14082528084944E-06 -108.073799081055 0.999705127663284 -0.0087069455667701 2.09344200800788E-06 80.2653772755575 0.000294954214385771 -4.1256344101906 
! Gamma         0.0060110934347365 0.03616654651496 0                0                0                0                0                0                
!               0                0                0.00602354912869419 0.0362085221835259 0                0                0                0                
!               0                0                0                0                0                0                0                0                
!               0                0                0                0                0                0                0                0                
! Port Impedance50               0                0                0                0                0                0                0                
!               0                0                50               0                0                0                0                0                
!               0                0                0                0                50               0                0                0                
!               0                0                0                0                0                0                50               0                

0.00158489319246111            0.00015086410203172 -20.1207553516479 3.19615843913553E-06 82.234244694582  0.999929266940833 -0.0051887061703449 1.67804413937246E-06 -104.800294973381 
                3.19615845791828E-06 82.2342445956803 0.000255312735628099 -6.62648754491432 1.67842121470185E-06 -104.803351800456 0.999782993681543 -0.00521966913496732 
                0.99992926694168 -0.00518870611580992 1.67842119367784E-06 -104.803351827656 0.000165152038123736 -33.2370490933992 3.19783557264331E-06 82.2880986728675 
                1.67804414886935E-06 -104.800294672735 0.999782993680632 -0.00521966910844433 3.19783558570093E-06 82.2880986185135 0.000306309796951082 -13.2547654078362 
! Gamma         0.00637797468192278 0.0565370549950987 0                0                0                0                0                0                
!               0                0                0.00639166730701277 0.0565979841841091 0                0                0                0                
!               0                0                0                0                0                0                0                0                
!               0                0                0                0                0                0                0                0                
! Port Impedance50               0                0                0                0                0                0                0                
!               0                0                50               0                0                0                0                0                
!               0                0                0                0                50               0                0                0                
!               0                0                0                0                0                0                50               0                

0.00251188643150958            0.000170410784486276 -30.3812342397074 4.92900750825743E-06 83.9932986187677 0.999905072087441 -0.0174642593449159 2.50847050894972E-06 -101.843882628842 
                4.92900750964488E-06 83.9932986198405 0.00027594772121159 -10.619334619074 2.50880584847446E-06 -101.846589166668 0.99976249061994 -0.0181484595821487 
                0.999905072087529 -0.0174642593085436 2.50880584502788E-06 -101.846589181732 0.0001826067368861 -36.4423032284671 4.93160129162005E-06 84.010432365014  
                2.5084705091559E-06 -101.843882610044 0.99976249061992 -0.018148459569043 4.93160129088553E-06 84.0104323741438 0.000309417081308949 -14.212866194478 
! Gamma         0.00686667494368213 0.0887891338757908 0                0                0                0                0                0                
!               0                0                0.00688432831855128 0.0888818263088427 0                0                0                0                
!               0                0                0                0                0                0                0                0                
!               0                0                0                0                0                0                0                0                
! Port Impedance50               0                0                0                0                0                0                0                
!               0                0                50               0                0                0                0                0                
!               0                0                0                0                50               0                0                0                
!               0                0                0                0                0                0                50               0                

0.00398107170553497            0.00021115568471886 -43.118158133732 7.66274888846274E-06 85.3015455472052 0.999854526707815 -0.0318120277332685 3.80788828425313E-06 -99.4649833445778 
                7.66274888927355E-06 85.3015455478259 0.000307374621816291 -17.5534757629101 3.80811032794623E-06 -99.4631596781682 0.99971263888254 -0.0334666220464689 
                0.999854526707805 -0.0318120277493783 3.80811032832427E-06 -99.463159678533 0.000214639805607975 -43.859817167608 7.6640496621153E-06 85.3078297936686 
                3.80788828592661E-06 -99.4649833395083 0.999712638882542 -0.0334666220530191 7.66404966243273E-06 85.3078297944919 0.000314231643469193 -17.9710476280129 
! Gamma         0.00739494781270517 0.139784991272335 0                0                0                0                0                0                
!               0                0                0.00742068875270548 0.139924929472425 0                0                0                0                
!               0                0                0                0                0                0                0                0                
!               0                0                0                0                0                0                0                0                
! Port Impedance50               0                0                0                0                0                0                0                
!               0                0                50               0                0                0                0                0                
!               0                0                0                0                50               0                0                0                
!               0                0                0                0                0                0                50               0                

0.00630957344480193            0.000281248583705057 -55.8859043720623 1.19540803372076E-05 86.2334511195863 0.999836134624027 -0.0507911690691074 5.82996172124711E-06 -97.681920260984 
                1.19540803366892E-05 86.2334511193111 0.000336570193954532 -26.8287928568446 5.83022430879769E-06 -97.6775295643988 0.999693822053938 -0.0535274385651135 
                0.999836134624021 -0.0507911690619314 5.83022430819052E-06 -97.677529564558 0.000281265040375154 -55.7108528693916 1.19551395928844E-05 86.2451920914625 
                5.82996172145718E-06 -97.6819202615719 0.999693822053945 -0.0535274385683884 1.19551395924296E-05 86.2451920908809 0.000336689860673002 -26.7092585364022 
! Gamma         0.00790052303440047 0.220605153091074 0                0                0                0                0                0                
!               0                0                0.00793637601197954 0.220815012816206 0                0                0                0                
!               0                0                0                0                0                0                0                0                
!               0                0                0                0                0                0                0                0                
! Port Impedance50               0                0                0                0                0                0                0                
!               0                0                50               0                0                0                0                0                
!               0                0                0                0                50               0                0                0                
!               0                0                0                0                0                0                50               0                

0.01                           0.000404615216221564 -66.838780734985 1.86965502356144E-05 86.9431951654392 0.99983182735021 -0.0801684443853976 8.97612396650104E-06 -96.2806531807986 
                1.86965502347855E-05 86.943195165317  0.000388208209801103 -38.9544588430275 8.97653115856593E-06 -96.2740270766338 0.999689411580744 -0.0844784801500761 
                0.999831827350214 -0.0801684443929585 8.9765311580227E-06 -96.2740270771496 0.000405144862841172 -66.5599035877259 1.86984511510708E-05 86.9610620030883 
                8.97612396692161E-06 -96.2806531803784 0.999689411580744 -0.0844784801418878 1.86984511515141E-05 86.9610620032005 0.000389357068458732 -38.7093409603273 
! Gamma         0.00848397986819264 0.348768289428129 0                0                0                0                0                0                
!               0                0                0.00852882270029514 0.349084878244025 0                0                0                0                
!               0                0                0                0                0                0                0                0                
!               0                0                0                0                0                0                0                0                
! Port Impedance50               0                0                0                0                0                0                0                
!               0                0                50               0                0                0                0                0                
!               0                0                0                0                50               0                0                0                
!               0                0                0                0                0                0                50               0                

0.1                            0.00380167991270027 -89.6773708019387 0.000179542598360874 88.4402848848333 0.999741138314009 -0.790858849947428 8.21126136205862E-05 -92.3302484045891 
                0.00017954259836092 88.440284884834  0.00253810806119484 -85.6278749736361 8.21181986424335E-05 -92.265516073284 0.999593683931646 -0.833572523296884 
                0.999741138314011 -0.790858849948156 8.21181986422409E-05 -92.2655160732911 0.00380763601791761 -86.6123903170054 0.000179753231838504 88.6079210581495 
                8.21126136207694E-05 -92.3302484045871 0.999593683931646 -0.83357252329668 0.000179753231838615 88.6079210581495 0.0025571162910874 -81.2569039834215 
! Gamma         0.0263056401914457 3.45999553142062 0                0                0                0                0                0                
!               0                0                0.0263856729161369 3.46296878194533 0                0                0                0                
!               0                0                0                0                0                0                0                0                
!               0                0                0                0                0                0                0                0                
! Port Impedance50               0                0                0                0                0                0                0                
!               0                0                50               0                0                0                0                0                
!               0                0                0                0                50               0                0                0                
!               0                0                0                0                0                0                50               0                

0.2                            0.00772036668879919 -92.191590273762 0.00035791296799606 88.4970093664147 0.999587920984275 -1.57712578082915 0.000162413157789732 -91.6200833822446 
                0.00035791296799611 88.4970093664141 0.00517421694476311 -90.0627068380666 0.000162417301426665 -91.48902614856  0.999429088770188 -1.6622310858011 
                0.999587920984275 -1.57712578082888 0.000162417301426553 -91.48902614856  0.00757253829942414 -87.9124977229999 0.000358461231055366 88.5651687706469 
                0.000162413157789761 -91.6200833822449 0.999429088770189 -1.66223108580069 0.000358461231055442 88.565168770647  0.00505708817958835 -84.2638533812795 
! Gamma         0.0390480414475962 6.90223253397555 0                0                0                0                0                0                
!               0                0                0.0391214518640868 6.90815733139934 0                0                0                0                
!               0                0                0                0                0                0                0                0                
!               0                0                0                0                0                0                0                0                
! Port Impedance50               0                0                0                0                0                0                0                
!               0                0                50               0                0                0                0                0                
!               0                0                0                0                50               0                0                0                
!               0                0                0                0                0                0                50               0                

0.3                            0.0116483108982002 -95.501144515069 0.000534706493570824 88.1299151420212 0.999474443946719 -2.36138025271293 0.000242025295628738 -91.2280312818603 
                0.000534706493570843 88.1299151420213 0.00785329958044291 -95.1731271564025 0.000242074110984879 -91.0340059776322 0.999310676863898 -2.48811041930639 
                0.99947444394672 -2.36138025271312 0.000242074110984838 -91.0340059776329 0.0115165623716267 -87.1483838452527 0.000538391947320381 88.3489409071097 
                0.000242025295628801 -91.2280312818606 0.999310676863899 -2.48811041930634 0.000538391947320415 88.3489409071098 0.00777605854085421 -83.5089356635433 
! Gamma         0.0532195776671112 10.340291672391  0                0                0                0                0                0                
!               0                0                0.0532887488679539 10.3491805531743 0                0                0                0                
!               0                0                0                0                0                0                0                0                
!               0                0                0                0                0                0                0                0                
! Port Impedance50               0                0                0                0                0                0                0                
!               0                0                50               0                0                0                0                0                
!               0                0                0                0                50               0                0                0                
!               0                0                0                0                0                0                50               0                

0.4                            0.0156585212398497 -98.063292926258 0.000709917898762531 87.6564876071583 0.999345166277715 -3.14482023790396 0.000321471710395577 -90.9435475379633 
                0.000709917898762548 87.6564876071584 0.0106390204744936 -98.8436510220477 0.000321599249116797 -90.6933274328354 0.999184136160456 -3.31263145728717 
                0.999345166277715 -3.14482023790401 0.000321599249116791 -90.6933274328353 0.0156155076473767 -86.6735767183252 0.000720643388575149 88.0109612071709 
                0.00032147171039559 -90.9435475379627 0.999184136160457 -3.31263145728732 0.000720643388575155 88.0109612071711 0.0106676632820912 -82.9601767323641 
! Gamma         0.0662835817006887 13.7749380173414 0                0                0                0                0                0                
!               0                0                0.066353455857115 13.7867958816021 0                0                0                0                
!               0                0                0                0                0                0                0                0                
!               0                0                0                0                0                0                0                0                
! Port Impedance50               0                0                0                0                0                0                0                
!               0                0                50               0                0                0                0                0                
!               0                0                0                0                50               0                0                0                
!               0                0                0                0                0                0                50               0                

0.5                            0.0198229910979217 -100.212379673768 0.000883791332832899 87.1687610040328 0.99918371435665 -3.92690732323172 0.000400921952781941 -90.714719434547 
                0.000883791332832906 87.1687610040331 0.0136016090737838 -101.707615003673 0.000401150071999272 -90.4129412927888 0.999034036323622 -4.13533944132868 
                0.999183714356651 -3.92690732323167 0.000401150071999253 -90.4129412927888 0.0198639742395216 -86.3876157113559 0.000905726645779903 87.560220780619  
                0.000400921952781966 -90.7147194345465 0.999034036323622 -4.13533944132868 0.000905726645779911 87.5602207806189 0.0137289227061388 -82.6099232866284 
! Gamma         0.0780367531881921 17.2078626667218 0                0                0                0                0                0                
!               0                0                0.0781122478662043 17.2226911237257 0                0                0                0                
!               0                0                0                0                0                0                0                0                
!               0                0                0                0                0                0                0                0                
! Port Impedance50               0                0                0                0                0                0                0                
!               0                0                50               0                0                0                0                0                
!               0                0                0                0                50               0                0                0                
!               0                0                0                0                0                0                50               0                

0.6                            0.0241780241878654 -102.092129056093 0.00105658662030688 86.70133388229   0.998987088834829 -4.70701117000784 0.000480494550892299 -90.5111426708956 
                0.00105658662030689 86.7013338822899 0.0167764354509089 -104.045338895606 0.00048083423659599 -90.1617257805216 0.99885806419642 -4.95564937720529 
                0.998987088834828 -4.70701117000773 0.000480834236595984 -90.1617257805213 0.0242797596131949 -86.255088412666 0.00109386740583983 87.0001980940689 
                0.000480494550892293 -90.5111426708957 0.998858064196421 -4.95564937720526 0.00109386740583983 87.000198094069  0.0169782300814409 -82.4631410156896 
! Gamma         0.0889155911982572 20.6399419591259 0                0                0                0                0                0                
!               0                0                0.0890008799545782 20.6577410466524 0                0                0                0                
!               0                0                0                0                0                0                0                0                
!               0                0                0                0                0                0                0                0                
! Port Impedance50               0                0                0                0                0                0                0                
!               0                0                50               0                0                0                0                0                
!               0                0                0                0                50               0                0                0                
!               0                0                0                0                0                0                50               0                

0.7                            0.0287402035200662 -103.757708217019 0.00122843504639011 86.2588520069664 0.998757166079917 -5.48477597056749 0.000560326543797655 -90.3176066775302 
                0.00122843504639011 86.2588520069665 0.0201785023499679 -105.983804731694 0.000560772907141765 -89.9243812630592 0.998659076358565 -5.77324381408154 
                0.998757166079917 -5.48477597056741 0.000560772907141743 -89.9243812630591 0.0288808405034702 -86.2786478393719 0.00128504407856081 86.3326696713883 
                0.000560326543797673 -90.3176066775303 0.998659076358565 -5.77324381408146 0.00128504407856082 86.3326696713883 0.0204315539485982 -82.5440145232772 
! Gamma         0.0993103138643571 24.0714857840305 0                0                0                0                0                0                
!               0                0                0.0994088124110808 24.0922547967631 0                0                0                0                
!               0                0                0                0                0                0                0                0                
!               0                0                0                0                0                0                0                0                
! Port Impedance50               0                0                0                0                0                0                0                
!               0                0                50               0                0                0                0                0                
!               0                0                0                0                50               0                0                0                
!               0                0                0                0                0                0                50               0                

0.8                            0.033510570336194 -105.232369928498 0.0013991834659769 85.8279992949448 0.99849615487538 -6.26015776372765 0.0006405725862294 -90.1291497598123 
                0.00139918346597691 85.8279992949449 0.0238067045697189 -107.594730942107 0.000641096689678207 -89.6959262230386 0.998440697685482 -6.58813738603973 
                0.99849615487538 -6.26015776372759 0.00064109668967821 -89.6959262230387 0.0336790805990194 -86.4681256112417 0.00147899321870526 85.5602434275309 
                0.000640572586229398 -90.129149759812 0.998440697685482 -6.58813738603974 0.00147899321870527 85.560243427531  0.0240966857176875 -82.869829746585 
! Gamma         0.10942996927832 27.5025344511994 0                0                0                0                0                0                
!               0                0                0.109544456593734 27.5262723084411 0                0                0                0                
!               0                0                0                0                0                0                0                0                
!               0                0                0                0                0                0                0                0                
! Port Impedance50               0                0                0                0                0                0                0                
!               0                0                50               0                0                0                0                0                
!               0                0                0                0                50               0                0                0                
!               0                0                0                0                0                0                50               0                

0.9                            0.0384749576561519 -106.527677822533 0.00156819126630542 85.3854765143076 0.998204298919428 -7.03339880365873 0.000721386543928584 -89.9470465528172 
                0.00156819126630542 85.3854765143077 0.0276445762916823 -108.929065920453 0.000721925479076821 -89.4774556608963 0.998204996915368 -7.40066811365899 
                0.998204298919429 -7.03339880365873 0.000721925479076834 -89.4774556608963 0.0386784843159452 -86.8313575730023 0.00167522520356592 84.6875302963996 
                0.000721386543928575 -89.9470465528174 0.998204996915369 -7.40066811365897 0.00167522520356591 84.6875302963996 0.0279720943434762 -83.446456657362 
! Gamma         0.119321578925037 30.9330159182617 0                0                0                0                0                0                
!               0                0                0.119454297582086 30.9597213201259 0                0                0                0                
!               0                0                0                0                0                0                0                0                
!               0                0                0                0                0                0                0                0                
! Port Impedance50               0                0                0                0                0                0                0                
!               0                0                50               0                0                0                0                0                
!               0                0                0                0                50               0                0                0                
!               0                0                0                0                0                0                50               0                

1                              0.0436032952334274 -107.650081006763 0.00173409475562112 84.9047837538625 0.997878437448993 -7.80500131264395 0.000802900317643375 -89.775754008182 
                0.00173409475562112 84.9047837538624 0.0316597703217445 -110.028404587502 0.000803346000984513 -89.272984971309 0.997950987552625 -8.21148221314419 
                0.997878437448993 -7.80500131264392 0.000803346000984518 -89.2729849713091 0.0438746412129581 -87.3720222649402 0.00187305451540437 83.7214310601363 
                0.000802900317643367 -89.775754008182 0.997950987552627 -8.21148221314421 0.00187305451540436 83.7214310601363 0.0320469610376541 -84.2698655627888 
! Gamma         0.128910517782092 34.3628159087404 0                0                0                0                0                0                
!               0                0                0.129063232944572 34.3924874009238 0                0                0                0                
!               0                0                0                0                0                0                0                0                
!               0                0                0                0                0                0                0                0                
! Port Impedance50               0                0                0                0                0                0                0                
!               0                0                50               0                0                0                0                0                
!               0                0                0                0                50               0                0                0                
!               0                0                0                0                0                0                50               0                

1.1                            0.0488780856011956 -108.582692574955 0.00189880623401807 84.4410322985741 0.997551940898027 -8.57497237480142 0.000886593247269029 -89.5772623979445 
                0.00189880623401806 84.4410322985739 0.0358190035198224 -110.868362263372 0.000886569019979167 -89.0464625788754 0.997694775868627 -9.01947025301668 
                0.997551940898028 -8.57497237480152 0.000886569019979169 -89.0464625788752 0.0492322058866446 -88.1030802216792 0.00207065249477812 82.6886144352712 
                0.000886593247269039 -89.5772623979444 0.997694775868626 -9.01947025301669 0.00207065249477812 82.6886144352712 0.0362967055314035 -85.3396936608538 
! Gamma         0.138374343758001 37.792487184408  0                0                0                0                0                0                
!               0                0                0.138548530434493 37.8251237503871 0                0                0                0                
!               0                0                0                0                0                0                0                0                
!               0                0                0                0                0                0                0                0                
! Port Impedance50               0                0                0                0                0                0                0                
!               0                0                50               0                0                0                0                0                
!               0                0                0                0                50               0                0                0                
!               0                0                0                0                0                0                50               0                

1.2                            0.054319061935227 -109.369162103824 0.00206112075054497 83.9680996038966 0.99716873376546 -9.34217681451872 0.000971238375242887 -89.4283372849114 
                0.00206112075054496 83.9680996038965 0.0401546268441577 -111.491989446146 0.000970587984084624 -88.8644307317277 0.997404478771679 -9.82524306057313 
                0.997168733765461 -9.34217681451881 0.000970587984084633 -88.8644307317277 0.054732834450883 -88.9562226496105 0.00226831269344852 81.5834461918504 
                0.000971238375242883 -89.4283372849114 0.997404478771679 -9.82524306057312 0.00226831269344851 81.5834461918503 0.0406898459891835 -86.5696092902451 
! Gamma         0.147672216427233 41.2219518226882 0                0                0                0                0                0                
!               0                0                0.147869122941781 41.2575524936153 0                0                0                0                
!               0                0                0                0                0                0                0                0                
!               0                0                0                0                0                0                0                0                
! Port Impedance50               0                0                0                0                0                0                0                
!               0                0                50               0                0                0                0                0                
!               0                0                0                0                50               0                0                0                
!               0                0                0                0                0                0                50               0                

1.3                            0.0598996656232724 -110.024083012359 0.00222089312573565 83.4865103068531 0.996733984597026 -10.1064958259194 0.00105689784496741 -89.3274532533742 
                0.00222089312573564 83.486510306853  0.0446397115405699 -111.929993013977 0.00105545174771021 -88.7255573353931 0.99708160040726 -10.6286159775162 
                0.996733984597027 -10.1064958259195 0.00105545174771021 -88.7255573353933 0.0603527590146701 -89.9245759405662 0.00246495417978824 80.4132999732096 
                0.00105689784496742 -89.3274532533743 0.99708160040726 -10.6286159775161 0.00246495417978824 80.4132999732096 0.0452017568476403 -87.9445723230726 
! Gamma         0.156827749777702 44.6512865437409 0                0                0                0                0                0                
!               0                0                0.157048414959651 44.6898504718189 0                0                0                0                
!               0                0                0                0                0                0                0                0                
!               0                0                0                0                0                0                0                0                
! Port Impedance50               0                0                0                0                0                0                0                
!               0                0                50               0                0                0                0                0                
!               0                0                0                0                50               0                0                0                
!               0                0                0                0                0                0                50               0                

1.4                            0.0655895636209341 -110.562181016491 0.00237799965992366 82.9962417990633 0.996252543162519 -10.8678875798757 0.00114362045358812 -89.2746457213376 
                0.00237799965992365 82.9962417990632 0.0492439385211802 -112.210278292225 0.00114119681812149 -88.6298904787805 0.996728269268486 -11.4295177417757 
                0.996252543162519 -10.8678875798757 0.0011411968181215 -88.6298904787804 0.0660634836524526 -90.9981584863487 0.00265938700169567 79.1884884707954 
                0.00114362045358811 -89.2746457213375 0.996728269268487 -11.4295177417757 0.00265938700169566 79.1884884707954 0.0498038757237819 -89.4473775415503 
! Gamma         0.165859091994324 48.0805576567102 0                0                0                0                0                0                
!               0                0                0.166104382768019 48.1220841291412 0                0                0                0                
!               0                0                0                0                0                0                0                0                
!               0                0                0                0                0                0                0                0                
! Port Impedance50               0                0                0                0                0                0                0                
!               0                0                50               0                0                0                0                0                
!               0                0                0                0                50               0                0                0                
!               0                0                0                0                0                0                50               0                

1.5                            0.0713556443391872 -110.998123626224 0.00253233867707029 82.4968534564382 0.995729115717513 -11.6263832099482 0.00123143697469359 -89.2709562534434 
                0.00253233867707029 82.4968534564383 0.0539344470971368 -112.358180800071 0.00122784317822893 -88.5783626956802 0.996347065478338 -12.2279734814152 
                0.995729115717513 -11.6263832099482 0.00122784317822893 -88.5783626956803 0.0718329473148956 -92.1649271250919 0.00285038341285155 77.9217452660262 
                0.00123143697469359 -89.2709562534433 0.996347065478338 -12.2279734814152 0.00285038341285155 77.9217452660263 0.0544648417673697 -91.0598214119346 
! Gamma         0.174780319536169 51.5098244052277 0                0                0                0                0                0                
!               0                0                0.175050962797244 51.554312849333  0                0                0                0                
!               0                0                0                0                0                0                0                0                
!               0                0                0                0                0                0                0                0                
! Port Impedance50               0                0                0                0                0                0                0                
!               0                0                50               0                0                0                0                0                
!               0                0                0                0                50               0                0                0                
!               0                0                0                0                0                0                50               0                

1.6                            0.0771630489717944 -111.346353706271 0.00268383070694218 81.9875707283144 0.995168374330595 -12.3820820777389 0.00132035508140746 -89.3180410241543 
                0.00268383070694218 81.9875707283144 0.0586767100522973 -112.396677200036 0.00131538978332028 -88.5724401788638 0.995940911765872 -13.0240914807931 
                0.995168374330595 -12.382082077739 0.00131538978332028 -88.572440178864 0.077626702547732 -93.4115359867964 0.00303675706766297 76.62753636015   
                0.00132035508140747 -89.3180410241543 0.995940911765873 -13.0240914807931 0.00303675706766297 76.62753636015   0.0591515470011777 -92.763450476175 
! Gamma         0.183602621862597 54.9391409188714 0                0                0                0                0                0                
!               0                0                0.183899230573821 54.9865909017128 0                0                0                0                
!               0                0                0                0                0                0                0                0                
!               0                0                0                0                0                0                0                0                
! Port Impedance50               0                0                0                0                0                0                0                
!               0                0                50               0                0                0                0                0                
!               0                0                0                0                50               0                0                0                
!               0                0                0                0                0                0                50               0                

1.7                            0.0829762015260917 -111.620977111327 0.00283241826037138 81.4673446736829 0.994575014074615 -13.1351464256143 0.00141035401596529 -89.4178698543803 
                0.00283241826037138 81.4673446736829 0.0634354244363862 -112.346616384546 0.00140380986663718 -88.613852843732 0.995512991866965 -13.8180518348611 
                0.994575014074615 -13.1351464256144 0.00140380986663718 -88.6138528437321 0.083409097973984 -94.7238917530739 0.00321744099455746 75.3212483036301 
                0.00141035401596529 -89.4178698543802 0.995512991866965 -13.8180518348611 0.00321744099455746 75.3212483036302 0.0638301243558717 -94.5400192438485 
! Gamma         0.192335166589164 58.3685573759927 0                0                0                0                0                0                
!               0                0                0.192658260716971 58.4189686007941 0                0                0                0                
!               0                0                0                0                0                0                0                0                
!               0                0                0                0                0                0                0                0                
! Port Impedance50               0                0                0                0                0                0                0                
!               0                0                50               0                0                0                0                0                
!               0                0                0                0                50               0                0                0                
!               0                0                0                0                0                0                50               0                

1.8                            0.0887598071611094 -111.835703896422 0.00297806518610212 80.9348983959994 0.99395376937956 -13.8857954162566 0.00150137922241485 -89.5724767539569 
                0.00297806518610211 80.9348983959993 0.0681754055892051 -112.226973173195 0.00149304624620346 -88.7043708928401 0.995066679467521 -14.6100959162441 
                0.99395376937956 -13.8857954162566 0.00149304624620346 -88.7043708928401 0.0891444465486934 -96.0875641890436 0.00339155467000146 74.0183265139475 
                0.00150137922241485 -89.5724767539569 0.995066679467522 -14.6100959162441 0.00339155467000146 74.0183265139475 0.0684668856795458 -96.3717548674243 
! Gamma         0.200985684716914 61.7981207339621 0                0                0                0                0                0                
!               0                0                0.201335707859288 61.8514930348433 0                0                0                0                
!               0                0                0                0                0                0                0                0                
!               0                0                0                0                0                0                0                0                
! Port Impedance50               0                0                0                0                0                0                0                
!               0                0                50               0                0                0                0                0                
!               0                0                0                0                50               0                0                0                
!               0                0                0                0                0                0                50               0                

1.9                            0.0944797929240718 -112.003830667552 0.00312075562347531 80.3887668680779 0.993309397845828 -14.6342985595638 0.0015933372287146 -89.7837409620484 
                0.00312075562347531 80.3887668680779 0.072862467212506 -112.055114320028 0.00158300687961124 -88.8456095234635 0.994605469731401 -15.4005160951249 
                0.993309397845829 -14.6342985595638 0.00158300687961124 -88.8456095234636 0.0947981575684952 -97.4880940013769 0.00355845205354526 72.7334493916486 
                0.0015933372287146 -89.7837409620482 0.994605469731401 -15.4005160951249 0.00355845205354526 72.7334493916486 0.073029215213024 -98.2414988342849 
! Gamma         0.20956085094365 65.2278752241247 0                0                0                0                0                0                
!               0                0                0.209938183499303 65.2842085600771 0                0                0                0                
!               0                0                0                0                0                0                0                0                
!               0                0                0                0                0                0                0                0                
! Port Impedance50               0                0                0                0                0                0                0                
!               0                0                50               0                0                0                0                0                
!               0                0                0                0                50               0                0                0                
!               0                0                0                0                0                0                50               0                

2                              0.100104169439883 -112.13824819464 0.00326049258469287 79.8273338324453 0.992646637454056 -15.3809685454565 0.00168609113416957 -90.0531878414267 
                0.00326049258469287 79.8273338324454 0.0774642658221366 -111.84706335974 0.00167356096641025 -89.0388525333595 0.994132909590266 -16.1896454662774 
                0.992646637454056 -15.3809685454564 0.00167356096641025 -89.0388525333595 0.10033780826013 -98.9112284914967 0.00371774568390153 71.4798190507813 
                0.00168609113416957 -90.0531878414267 0.994132909590266 -16.1896454662773 0.00371774568390152 71.4798190507813 0.0774864180588313 -100.132775072273 
! Gamma         0.2180665275515  68.657862715935  0                0                0                0                0                0                
!               0                0                0.218471497178611 68.7171571645876 0                0                0                0                
!               0                0                0                0                0                0                0                0                
!               0                0                0                0                0                0                0                0                
! Port Impedance50               0                0                0                0                0                0                0                
!               0                0                50               0                0                0                0                0                
!               0                0                0                0                50               0                0                0                
!               0                0                0                0                0                0                50               0                

2.1                            0.105603797265765 -112.251458821653 0.00339729621500252 79.248867816095  0.991970141618788 -16.1261535122879 0.00177945712317877 -90.381805429825 
                0.00339729621500253 79.2488678160949 0.081951085532377 -111.617750871185 0.00176453594667577 -89.2848911830895 0.99365252493442 -16.9778475207521 
                0.991970141618789 -16.1261535122879 0.00176453594667578 -89.2848911830895 0.105734130514949 -100.343107296562 0.00386930601883781 70.2686298177503 
                0.00177945712317877 -90.3818054298251 0.993652524934421 -16.9778475207521 0.00386930601883781 70.2686298177503 0.0818105186580706 -102.029818794968 
! Gamma         0.226507922866643 72.088123003654  0                0                0                0                0                0                
!               0                0                0.226940812846005 72.1503787551238 0                0                0                0                
!               0                0                0                0                0                0                0                0                
!               0                0                0                0                0                0                0                0                
! Port Impedance50               0                0                0                0                0                0                0                
!               0                0                50               0                0                0                0                0                
!               0                0                0                0                50               0                0                0                
!               0                0                0                0                0                0                50               0                

2.2                            0.110953047428376 -112.355590267988 0.00353120178981485 78.6515583012302 0.991284395834882 -16.8702287835979 0.001873202475213 -90.7698768550743 
                0.00353120178981485 78.6515583012303 0.0862965398610889 -111.381237686585 0.00185571578101473 -89.5838784459855 0.99316774386632 -17.7655057982029 
                0.991284395834883 -16.8702287835978 0.00185571578101473 -89.5838784459855 0.110961889880779 -101.770414690059 0.00401323906150527 69.1087467499182 
                0.001873202475213 -90.7698768550741 0.993167743866321 -17.7655057982029 0.00401323906150527 69.1087467499183 0.085977001004162 -103.917589929373 
! Gamma         0.23488969842572 75.5186940423165 0                0                0                0                0                0                
!               0                0                0.235350754412456 75.5839113932888 0                0                0                0                
!               0                0                0                0                0                0                0                0                
!               0                0                0                0                0                0                0                0                
! Port Impedance50               0                0                0                0                0                0                0                
!               0                0                50               0                0                0                0                0                
!               0                0                0                0                50               0                0                0                
!               0                0                0                0                0                0                50               0                

2.3                            0.116130351576338 -112.462395053022 0.00366225751520478 78.0335524718044 0.990593619577196 -17.6135881059653 0.00196704555636033 -91.2168320405278 
                0.00366225751520478 78.0335524718044 0.0904781712841736 -111.150899773377 0.00194684090862003 -89.9352014985548 0.992681815859853 -18.5530136003801 
                0.990593619577197 -17.6135881059653 0.00194684090862004 -89.9352014985548 0.116000636952173 -103.180510779705 0.00414984807186412 68.0065955990009 
                0.00196704555636033 -91.2168320405277 0.992681815859854 -18.5530136003801 0.00414984807186412 68.0065955990009 0.0899654800727868 -105.781787888325 
! Gamma         0.243216046096328 78.949612146447  0                0                0                0                0                0                
!               0                0                0.24370548163095 79.0177914945375 0                0                0                0                
!               0                0                0                0                0                0                0                0                
!               0                0                0                0                0                0                0                0                
! Port Impedance50               0                0                0                0                0                0                0                
!               0                0                50               0                0                0                0                0                
!               0                0                0                0                50               0                0                0                
!               0                0                0                0                0                0                50               0                

2.4                            0.121118642438977 -112.583227481293 0.00379052220295358 77.3929925572495 0.989901657441531 -18.3566344229972 0.00206065823960967 -91.7211244475025 
                0.00379052220295358 77.3929925572495 0.0944779360066654 -110.939564921121 0.00203761025092629 -90.3373772422665 0.992197727297991 -19.3407638578415 
                0.989901657441532 -18.3566344229972 0.00203761025092629 -90.3373772422667 0.120835315300786 -104.561551008379 0.00427958638476497 66.9662394720668 
                0.00206065823960967 -91.7211244475025 0.992197727297992 -19.3407638578415 0.00427958638476497 66.9662394720668 0.0937602925205397 -107.608879773314 
! Gamma         0.251490747618265 82.3809121588148 0                0                0                0                0                0                
!               0                0                0.252008748676184 82.4520539972184 0                0                0                0                
!               0                0                0                0                0                0                0                0                
!               0                0                0                0                0                0                0                0                
! Port Impedance50               0                0                0                0                0                0                0                
!               0                0                50               0                0                0                0                0                
!               0                0                0                0                50               0                0                0                
!               0                0                0                0                0                0                50               0                

2.5                            0.125905689114767 -112.728992672994 0.00391606289354044 76.7280535314955 0.989211864078312 -19.0997702290304 0.00215367109196597 -92.2801399947306 
                0.00391606289354044 76.7280535314954 0.0982825695911332 -110.759593083878 0.00212768554622644 -90.7879767931149 0.991718114563559 -20.1291392359586 
                0.989211864078312 -19.0997702290305 0.00212768554622645 -90.7879767931149 0.12545671442694 -105.902601236546 0.00440300811135084 65.989600021222  
                0.00215367109196597 -92.2801399947306 0.99171811456356 -20.1291392359586 0.00440300811135083 65.9896000212221 0.0973509938559944 -109.386151015489 
! Gamma         0.259717223495689 85.8126275937882 0                0                0                0                0                0                
!               0                0                0.260263952283258 85.8867325061967 0                0                0                0                
!               0                0                0                0                0                0                0                0                
!               0                0                0                0                0                0                0                0                
! Port Impedance50               0                0                0                0                0                0                0                
!               0                0                50               0                0                0                0                0                
!               0                0                0                0                50               0                0                0                
!               0                0                0                0                0                0                50               0                

2.6                            0.130484333543355 -112.910064444793 0.00403895250034445 76.0369807451301 0.988526988115464 -19.8433875630834 0.00224568147812502 -92.8901456118071 
                0.00403895250034446 76.0369807451301 0.101883837032567 -110.622894327315 0.00221669815959247 -91.2835851092469 0.991245176655817 -20.9185025545714 
                0.988526988115464 -19.8433875630834 0.00221669815959246 -91.2835851092468 0.129861760256747 -107.193754009966 0.00452072220144452 65.0767734337922 
                0.00224568147812503 -92.8901456118071 0.991245176655818 -20.9185025545714 0.00452072220144452 65.0767734337922 0.100732748758009 -111.101785328097 
! Gamma         0.267898574898364 89.2447907587199 0                0                0                0                0                0                
!               0                0                0.268474173050262 89.3218594144806 0                0                0                0                
!               0                0                0                0                0                0                0                0                
!               0                0                0                0                0                0                0                0                
! Port Impedance50               0                0                0                0                0                0                0                
!               0                0                50               0                0                0                0                0                
!               0                0                0                0                50               0                0                0                
!               0                0                0                0                0                0                50               0                

2.7                            0.134852634079646 -113.136170969984 0.00415926754558794 75.3181269411055 0.987849060865316 -20.5878577296265 0.00233626446894152 -93.5462839989294 
                0.00415926754558795 75.3181269411055 0.105278676896922 -110.540880799784 0.00230425831778744 -91.8198011432474 0.990780590155242 -21.709187586913 
                0.987849060865316 -20.5878577296266 0.00230425831778744 -91.8198011432474 0.134053638940868 -108.426250072696 0.00463335353123152 64.2263925103127 
                0.00233626446894152 -93.5462839989294 0.990780590155242 -21.7091875869131 0.00463335353123151 64.2263925103126 0.103906600772678 -112.744979094942 
! Gamma         0.276037620417809 92.677432856306  0                0                0                0                0                0                
!               0                0                0.276642211711463 92.7574660057924 0                0                0                0                
!               0                0                0                0                0                0                0                0                
!               0                0                0                0                0                0                0                0                
! Port Impedance50               0                0                0                0                0                0                0                
!               0                0                50               0                0                0                0                0                
!               0                0                0                0                50               0                0                0                
!               0                0                0                0                0                0                50               0                

2.8                            0.139013919494604 -113.416249172485 0.00427708605291834 74.5699880141836 0.987179296060647 -21.3335208672237 0.00242498613239449 -94.2426190832406 
                0.00427708605291835 74.5699880141837 0.108469251896573 -110.524351930779 0.00238996648854056 -92.3912820938629 0.990325430175811 -22.5014903033321 
                0.987179296060647 -21.3335208672237 0.00238996648854056 -92.391282093863 0.138041751842081 -109.592607485117 0.00474151283111272 63.4359931303903 
                0.00242498613239449 -94.2426190832405 0.990325430175811 -22.5014903033321 0.00474151283111272 63.4359931303903 0.106879607107267 -114.306093456816 
! Gamma         0.284136928593799 96.1105840705962 0                0                0                0                0                0                
!               0                0                0.284770621268177 96.1935825407637 0                0                0                0                
!               0                0                0                0                0                0                0                0                
!               0                0                0                0                0                0                0                0                
! Port Impedance50               0                0                0                0                0                0                0                
!               0                0                50               0                0                0                0                0                
!               0                0                0                0                50               0                0                0                
!               0                0                0                0                0                0                50               0                

2.9                            0.142976752447778 -113.758270876269 0.00439248565267234 73.7912368159047 0.986518007088925 -22.0806755275591 0.00251141846692692 -94.9722335812284 
                0.00439248565267235 73.7912368159046 0.11146291705932 -110.583315114556 0.00247342638746242 -92.9918326231072 0.989880101625369 -23.2956606364824 
                0.986518007088926 -22.0806755275591 0.00247342638746242 -92.9918326231071 0.141841500639695 -110.686758613136 0.0048457757021509 62.7023536119278 
                0.00251141846692693 -94.9722335812284 0.98988010162537 -23.2956606364823 0.0048457757021509 62.7023536119278 0.109664823647334 -115.776844921897 
! Gamma         0.292198846696049 99.544273639106  0                0                0                0                0                0                
!               0                0                0.292861735441815 99.6302383292105 0                0                0                0                
!               0                0                0                0                0                0                0                0                
!               0                0                0                0                0                0                0                0                
! Port Impedance50               0                0                0                0                0                0                0                
!               0                0                50               0                0                0                0                0                
!               0                0                0                0                50               0                0                0                
!               0                0                0                0                0                0                50               0                

3                              0.146754796301147 -114.169045990507 0.00450554194368868 72.9807542814416 0.985864548131989 -22.8295684736585 0.00259515496632497 -95.7273764043096 
                0.00450554194368868 72.9807542814416 0.114272111578725 -110.726747483248 0.00255425889160716 -93.6145365819769 0.989444285542036 -24.0918948668694 
                0.98586454813199 -22.8295684736585 0.00255425889160716 -93.6145365819769 0.145473901770997 -111.704192611304 0.00494666983446943 62.0217865262101 
                0.00259515496632497 -95.7273764043096 0.989444285542037 -24.0918948668694 0.00494666983446942 62.0217865262101 0.112281124855793 -117.150531914529 
! Gamma         0.300225526078228 102.978529913243 0                0                0                0                0                0                
!               0                0                0.300917693751599 103.067461790704 0                0                0                0                
!               0                0                0                0                0                0                0                0                
!               0                0                0                0                0                0                0                0                
! Port Impedance50               0                0                0                0                0                0                0                
!               0                0                50               0                0                0                0                0                
!               0                0                0                0                50               0                0                0                
!               0                0                0                0                0                0                50               0                

3.1                            0.150366574102274 -114.654010579759 0.00461632714032039 72.1376571667263 0.985217285227161 -23.5803849545984 0.00267582563939236 -96.4996539546358 
                0.0046163271403204 72.1376571667263 0.116914172463567 -110.962308118253 0.00263211600428895 -94.2519252620892 0.989016905406832 -24.8903287585786 
                0.985217285227162 -23.5803849545984 0.00263211600428895 -94.2519252620891 0.148965029625383 -112.642097795402 0.00504466885491228 61.390372832752  
                0.00267582563939236 -96.4996539546359 0.989016905406832 -24.8903287585786 0.00504466885491228 61.390372832752  0.114752843341171 -118.422290001673 
! Gamma         0.308218944377574 106.413380409003 0                0                0                0                0                0                
!               0                0                0.3089404634797  106.505280505395 0                0                0                0                
!               0                0                0                0                0                0                0                0                
!               0                0                0                0                0                0                0                0                
! Port Impedance50               0                0                0                0                0                0                0                
!               0                0                50               0                0                0                0                0                
!               0                0                0                0                50               0                0                0                
!               0                0                0                0                0                0                50               0                

3.2                            0.153835104827034 -115.217010580852 0.00472490901583613 71.261321738232  0.984573602513317 -24.3332397614714 0.00275311029554238 -97.2802562851709 
                0.00472490901583614 71.261321738232  0.119411058884209 -111.296014344194 0.00270669398072552 -94.8961729424913 0.988596118096406 -25.691031610777 
                0.984573602513318 -24.3332397614714 0.00270669398072552 -94.8961729424913 0.152345288891211 -113.499494627704 0.00514019093545441 60.8041368439303 
                0.00275311029554238 -97.280256285171 0.988596118096407 -25.691031610777 0.0051401909354544 60.8041368439303 0.117109215359126 -119.589362528981 
! Gamma         0.316180924837557 109.848851849617 0                0                0                0                0                0                
!               0                0                0.316931858793443 109.943721256778 0                0                0                0                
!               0                0                0                0                0                0                0                0                
!               0                0                0                0                0                0                0                0                
! Port Impedance50               0                0                0                0                0                0                0                
!               0                0                50               0                0                0                0                0                
!               0                0                0                0                50               0                0                0                
!               0                0                0                0                0                0                50               0                

3.3                            0.157187400727042 -115.860095071627 0.00483135013497851 70.3514028556701 0.983929947793146 -25.0881694120072 0.0028267490780265 -98.0602071776726 
                0.00483135013497851 70.3514028556701 0.121788967762886 -111.731900698011 0.00277774480096057 -95.5393080019304 0.988179333508852 -26.4940014265519 
                0.983929947793147 -25.0881694120072 0.00277774480096057 -95.5393080019304 0.155648519209583 -114.277346277073 0.00523360029878738 60.259167168222  
                0.00282674907802651 -98.0602071776727 0.988179333508853 -26.4940014265519 0.00523360029878738 60.259167168222  0.119383622312838 -120.651366349717 
! Gamma         0.324113153044854 113.284970201591 0                0                0                0                0                0                
!               0                0                0.324893557310112 113.382810067837 0                0                0                0                
!               0                0                0                0                0                0                0                0                
!               0                0                0                0                0                0                0                0                
! Port Impedance50               0                0                0                0                0                0                0                
!               0                0                50               0                0                0                0                0                
!               0                0                0                0                50               0                0                0                
!               0                0                0                0                0                0                50               0                

3.4                            0.160453811925148 -116.583336062014 0.00493570735071095 69.4078480272225 0.983281920027504 -25.8451258445843 0.00289654958134686 -98.8306266674143 
                0.00493570735071095 69.4078480272225 0.124077815963593 -112.271684666659 0.00284508535597013 -96.1734264927597 0.987763265871054 -27.2991614317288 
                0.983281920027505 -25.8451258445843 0.00284508535597014 -96.1734264927598 0.158910940687971 -114.97863046111 0.0053252099727659 59.7516934360015 
                0.00289654958134687 -98.8306266674144 0.987763265871055 -27.2991614317288 0.0053252099727659 59.7516934360015 0.121612625482602 -121.610525034673 
! Gamma         0.332017191379138 116.721760705326 0                0                0                0                0                0                
!               0                0                0.332827114398355 116.822572231769 0                0                0                0                
!               0                0                0                0                0                0                0                0                
!               0                0                0                0                0                0                0                0                
! Port Impedance50               0                0                0                0                0                0                0                
!               0                0                50               0                0                0                0                0                
!               0                0                0                0                50               0                0                0                
!               0                0                0                0                0                0                50               0                

3.5                            0.163667210963869 -117.384694231861 0.00503803152490061 68.4309061907825 0.982624399498591 -26.6039720212333 0.00296239039998391 -99.5829951780781 
                0.00503803152490061 68.4309061907824 0.126310564519323 -112.91446886859 0.00290860396430082 -96.7908950355719 0.987344018343796 -28.1063581974193 
                0.982624399498591 -26.6039720212333 0.00290860396430082 -96.7908950355719 0.162169957391178 -115.608354326265 0.00541528449599219 59.2781315512813 
                0.00296239039998391 -99.5829951780781 0.987344018343796 -28.1063581974193 0.00541528449599218 59.2781315512813 0.123834802554004 -122.471835788858 
! Gamma         0.339894491469835 120.159247901302 0                0                0                0                0                0                
!               0                0                0.340733975506873 120.263032338254 0                0                0                0                
!               0                0                0                0                0                0                0                0                
!               0                0                0                0                0                0                0                0                
! Port Impedance50               0                0                0                0                0                0                0                
!               0                0                50               0                0                0                0                0                
!               0                0                0                0                50               0                0                0                
!               0                0                0                0                0                0                50               0                

3.6                            0.16686202100035 -118.259951156678 0.00513836742144936 67.4211311719504 0.981951719183859 -27.3644798382016 0.00302422156304649 -100.309409391361 
                0.00513836742144936 67.4211311719503 0.128522367231582 -113.656514042658 0.00296826411488976 -97.3845312102534 0.986917200830995 -28.9153616261335 
                0.98195171918386 -27.3644798382016 0.00296826411488976 -97.3845312102534 0.165462847564787 -116.173494357436 0.00550404171232969 58.835111854428  
                0.0030242215630465 -100.309409391361 0.986917200830996 -28.9153616261336 0.00550404171232969 58.835111854428  0.12608941021779 -123.243133155391 
! Gamma         0.347746404938791 123.597455652637 0                0                0                0                0                0                
!               0                0                0.348615486796427 123.704214296107 0                0                0                0                
!               0                0                0                0                0                0                0                0                
!               0                0                0                0                0                0                0                0                
! Port Impedance50               0                0                0                0                0                0                0                
!               0                0                50               0                0                0                0                0                
!               0                0                0                0                50               0                0                0                
!               0                0                0                0                0                0                50               0                

3.7                            0.170073106152538 -119.202727531677 0.00523675371436936 66.3793799762809 0.981257873457704 -28.1263307163246 0.00308206292019236 -101.002819890433 
                0.00523675371436936 66.3793799762809 0.130749540226948 -114.491119522682 0.00302410558835176 -97.9477521220245 0.986478078950351 -29.7258670476907 
                0.981257873457704 -28.1263307163246 0.00302410558835177 -97.9477521220244 0.168825383148006 -116.682846489589 0.00559165329363731 58.4195053966509 
                0.00308206292019237 -101.002819890433 0.986478078950351 -29.7258670476907 0.00559165329363731 58.4195053966509 0.128414916333283 -123.935014517822 
! Gamma         0.355574192684576 127.036407164671 0                0                0                0                0                0                
!               0                0                0.356472904328554 127.14614135294  0                0                0                0                
!               0                0                0                0                0                0                0                0                
!               0                0                0                0                0                0                0                0                
! Port Impedance50               0                0                0                0                0                0                0                
!               0                0                50               0                0                0                0                0                
!               0                0                0                0                50               0                0                0                
!               0                0                0                0                0                0                50               0                

3.8                            0.173334559626916 -120.204603030866 0.00533322305306969 65.3068062734587 0.980536757709075 -28.8891191873377 0.00313600201735622 -101.657237976282 
                0.00533322305306969 65.3068062734586 0.133028369786531 -115.408646038238 0.00307624330430355 -98.4746852043371 0.986021750042513 -30.5374996339165 
                0.980536757709074 -28.8891191873377 0.00307624330430356 -98.4746852043371 0.172290435314333 -117.146778078182 0.00567824421666994 58.0284638877111 
                0.00313600201735623 -101.657237976282 0.986021750042513 -30.5374996339165 0.00567824421666994 58.0284638877111 0.130847465710999 -124.560601043965 
! Gamma         0.363379032936293 130.476125002092 0                0                0                0                0                0                
!               0                0                0.364307402036777 130.588836112372 0                0                0                0                
!               0                0                0                0                0                0                0                0                
!               0                0                0                0                0                0                0                0                
! Port Impedance50               0                0                0                0                0                0                0                
!               0                0                50               0                0                0                0                0                
!               0                0                0                0                50               0                0                0                
!               0                0                0                0                0                0                50               0                

3.9                            0.176678442325811 -121.255346402302 0.00542780213264949 64.2048496064681 0.979782429996765 -29.6523597035262 0.00318619313703183 -102.267893178337 
                0.00542780213264948 64.204849606468  0.13539380045013 -116.396708089616 0.00312486435490595 -98.9602392007921 0.98554334002441 -31.3498212776956 
                0.979782429996765 -29.6523597035262 0.00312486435490597 -98.9602392007921 0.175886634853092 -117.57688286332 0.00576389215391589 57.6594887660786 
                0.00318619313703184 -102.267893178337 0.98554334002441 -31.3498212776956 0.00576389215391589 57.6594887660786 0.133419362044074 -125.135123461208 
! Gamma         0.37116202827501 133.916631104049 0                0                0                0                0                0                
!               0                0                0.372120078676707 134.032320549214 0                0                0                0                
!               0                0                0                0                0                0                0                0                
!               0                0                0                0                0                0                0                0                
! Port Impedance50               0                0                0                0                0                0                0                
!               0                0                50               0                0                0                0                0                
!               0                0                0                0                50               0                0                0                
!               0                0                0                0                0                0                50               0                

4                              0.180133538691074 -122.343254514308 0.00552051172791972 63.0752209889918 0.978989383657987 -30.4154967765803 0.00323285874347242 -102.831315531042 
                0.00552051172791972 63.0752209889917 0.13787806995751 -117.440549050534 0.00317022371558254 -99.4001372399168 0.985038212995274 -32.1623399919464 
                0.978989383657988 -30.4154967765802 0.00317022371558256 -99.4001372399168 0.179637163418785 -117.98555141547 0.00584862871933005 57.3105433535696 
                0.00323285874347243 -102.831315531042 0.985038212995274 -32.1623399919464 0.00584862871933005 57.3105433535696 0.136157660753319 -125.67534345571 
! Gamma         0.378924211791689 137.357946797587 0                0                0                0                0                0                
!               0                0                0.379911963922385 137.476616022974 0                0                0                0                
!               0                0                0                0                0                0                0                0                
!               0                0                0                0                0                0                0                0                
! Port Impedance50               0                0                0                0                0                0                0                
!               0                0                50               0                0                0                0                0                
!               0                0                0                0                50               0                0                0                
!               0                0                0                0                0                0                50               0                

4.1                            0.183724204609147 -123.455587411561 0.00561136666599896 61.9198856190487 0.978152818053119 -31.1779184002874 0.00327629341622472 -103.34531305119 
                0.00561136666599895 61.9198856190486 0.140509376997521 -118.523592346898 0.00321263909281319 -99.7909175936006 0.984502183960118 -32.9745217699467 
                0.978152818053119 -31.1779184002874 0.00321263909281321 -99.7909175936006 0.183558751650598 -118.3854809388  0.0059324458415393 56.9802166859816 
                0.00327629341622473 -103.34531305119 0.984502183960119 -32.9745217699467 0.0059324458415393 56.9802166859816 0.139082969675919 -126.198845047055 
! Gamma         0.386666552523112 140.800092809681 0                0                0                0                0                0                
!               0                0                0.387684023749006 140.921743289966 0                0                0                0                
!               0                0                0                0                0                0                0                0                
!               0                0                0                0                0                0                0                0                
! Port Impedance50               0                0                0                0                0                0                0                
!               0                0                50               0                0                0                0                0                
!               0                0                0                0                50               0                0                0                
!               0                0                0                0                0                0                50               0                

4.2                            0.187469381986818 -124.579074787449 0.00570037573404717 60.7410434236292 0.977268893575845 -31.9389725376391 0.0033168686325949 -103.808823469454 
                0.00570037573404716 60.7410434236291 0.143310677143707 -119.628139223416 0.00325248530635544 -100.129910758854 0.983931724017257 -33.7858047158457 
                0.977268893575845 -31.9389725376391 0.00325248530635545 -100.129910758854 0.187660951581509 -118.789157537174 0.0060153122081315 56.6679335277291 
                0.00331686863259491 -103.808823469454 0.983931724017257 -33.7858047158457 0.0060153122081315 56.6679335277291 0.142208544359126 -126.723251086407 
! Gamma         0.39438996028274 144.243089278108 0                0                0                0                0                0                
!               0                0                0.395437165217843 144.367722514247 0                0                0                0                
!               0                0                0                0                0                0                0                0                
!               0                0                0                0                0                0                0                0                
! Port Impedance50               0                0                0                0                0                0                0                
!               0                0                50               0                0                0                0                0                
!               0                0                0                0                50               0                0                0                
!               0                0                0                0                0                0                50               0                

4.3                            0.19138184519322 -125.700459754708 0.00578754154669063 59.5411080644553 0.976334956853394 -32.6979862665553 0.00335503514881027 -104.221646754956 
                0.00578754154669063 59.5411080644552 0.146298698499148 -120.736162015036 0.00329018853789925 -100.415203679457 0.983324147004575 -34.5956151119383 
                0.976334956853396 -32.6979862665553 0.00329018853789926 -100.415203679457 0.191945733846902 -119.20834913548 0.00609720631975885 56.3741753099484 
                0.00335503514881029 -104.221646754956 0.983324147004575 -34.5956151119383 0.00609720631975885 56.3741753099484 0.145539742514136 -127.26543308869 
! Gamma         0.402095289982108 147.686955761346 0                0                0                0                0                0                
!               0                0                0.403172240757907 147.814573277577 0                0                0                0                
!               0                0                0                0                0                0                0                0                
!               0                0                0                0                0                0                0                0                
! Port Impedance50               0                0                0                0                0                0                0                
!               0                0                50               0                0                0                0                0                
!               0                0                0                0                50               0                0                0                
!               0                0                0                0                0                0                50               0                

4.4                            0.195467726831161 -126.807040341106 0.00587286043123636 58.3226849109149 0.975349722814592 -33.4542869932143 0.00339131931623457 -104.584107719955 
                0.00587286043123636 58.3226849109149 0.149483250981401 -121.830126313637 0.00332622072481073 -100.645603112469 0.982677766999965 -35.4033849485891 
                0.975349722814592 -33.4542869932143 0.00332622072481074 -100.645603112469 0.196407436849273 -119.653647009286 0.00617817285694112 56.1006253755863 
                0.00339131931623458 -104.584107719955 0.982677766999966 -35.4033849485891 0.00617817285694113 56.1006253755863 0.149073871052847 -127.840784569585 
! Gamma         0.409783345520251 151.131711247654 0                0                0                0                0                0                
!               0                0                0.410890052021001 151.262314588574 0                0                0                0                
!               0                0                0                0                0                0                0                0                
!               0                0                0                0                0                0                0                0                
! Port Impedance50               0                0                0                0                0                0                0                
!               0                0                50               0                0                0                0                0                
!               0                0                0                0                50               0                0                0                
!               0                0                0                0                0                0                50               0                

4.5                            0.199726346863383 -127.887168946591 0.00595632242342678 57.08854836673   0.974313402037776 -34.2072249732033 0.00342631126607443 -104.896737240122 
                0.00595632242342678 57.08854836673   0.152866874637341 -122.893769840398 0.00336109432768818 -100.820610351448 0.981992017239096 -36.2085703159971 
                0.974313402037776 -34.2072249732033 0.00336109432768819 -100.820610351448 0.201033068405882 -120.134088293541 0.00625840494242777 55.8500838819026 
                0.00342631126607444 -104.896737240121 0.981992017239096 -36.2085703159971 0.00625840494242777 55.8500838819026 0.152800424295936 -128.462618376586 
! Gamma         0.417454883303701 154.577374163474 0                0                0                0                0                0                
!               0                0                0.418591353371921 154.710964891167 0                0                0                0                
!               0                0                0                0                0                0                0                0                
!               0                0                0                0                0                0                0                0                
! Port Impedance50               0                0                0                0                0                0                0                
!               0                0                50               0                0                0                0                0                
!               0                0                0                0                50               0                0                0                
!               0                0                0                0                0                0                50               0                

4.6                            0.204150343755613 -128.930675151939 0.0060379114935245 55.8416188450802 0.973227764434278 -34.9561962438197 0.00346064613275288 -105.160070376766 
                0.00603791149352451 55.8416188450802 0.15644483834205 -123.912771764824 0.00339535761962389 -100.940418745958 0.98126752288577 -37.0106699563716 
                0.973227764434279 -34.9561962438196 0.0033953576196239 -100.940418745957 0.205802934221661 -120.656882080294 0.0063383426127483 55.6259467569052 
                0.00346064613275289 -105.160070376765 0.98126752288577 -37.0106699563716 0.0063383426127483 55.6259467569052 0.156701679299915 -129.141729672122 
! Gamma         0.425110615447405 158.023962381265 0                0                0                0                0                0                
!               0                0                0.426276855063495 158.160542072499 0                0                0                0                
!               0                0                0                0                0                0                0                0                
!               0                0                0                0                0                0                0                0                
! Port Impedance50               0                0                0                0                0                0                0                
!               0                0                50               0                0                0                0                0                
!               0                0                0                0                50               0                0                0                
!               0                0                0                0                0                0                50               0                

4.7                            0.208726083035178 -129.929186698342 0.00611760613234349 54.5849396001378 0.972096133707992 -35.7006649796985 0.00349498262579053 -105.374626667854 
                0.00611760613234348 54.5849396001378 0.16020546730655 -124.875262304006 0.00342959048751169 -101.005943418457 0.980506122532465 -37.8092432107689 
                0.972096133707992 -35.7006649796985 0.0034295904875117 -101.005943418457 0.210691545219864 -121.227249758085 0.0064187561341786 55.4310869045073 
                0.00349498262579053 -105.374626667854 0.980506122532465 -37.8092432107689 0.00641875613417859 55.4310869045074 0.160753588752869 -129.886142851727 
! Gamma         0.432751212697199 161.471493226864 0                0                0                0                0                0                
!               0                0                0.433947226136553 161.611063470348 0                0                0                0                
!               0                0                0                0                0                0                0                0                
!               0                0                0                0                0                0                0                0                
! Port Impedance50               0                0                0                0                0                0                0                
!               0                0                50               0                0                0                0                0                
!               0                0                0                0                50               0                0                0                
!               0                0                0                0                0                0                50               0                

4.8                            0.213434300812304 -130.876335273891 0.0061953804145526 53.3216534907476 0.970923310908501 -36.4401842490885 0.00352998433370428 -105.541075943451 
                0.00619538041455259 53.3216534907475 0.164130751853926 -125.772144893334 0.00346440048650958 -101.018888511163 0.979710836132852 -38.603926573907 
                0.970923310908502 -36.4401842490885 0.00346440048650959 -101.018888511163 0.215668739775946 -121.848378312462 0.00650076053776188 55.2662083094365 
                0.00352998433370428 -105.541075943451 0.979710836132854 -38.603926573907 0.00650076053776188 55.2662083094365 0.164926896373934 -130.701037890941 
! Gamma         0.440377307106815 164.91998348647  0                0                0                0                0                0                
!               0                0                0.441603097077299 165.062545880172 0                0                0                0                
!               0                0                0                0                0                0                0                0                
!               0                0                0                0                0                0                0                0                
! Port Impedance50               0                0                0                0                0                0                0                
!               0                0                50               0                0                0                0                0                
!               0                0                0                0                50               0                0                0                
!               0                0                0                0                0                0                50               0                

4.9                            0.218250929269836 -131.767845782528 0.00627120562464003 52.0549795487581 0.969715429460667 -37.1744141754596 0.00356630755086906 -105.660534904813 
                0.00627120562464003 52.0549795487581 0.168197174507528 -126.597227101556 0.00350041862105898 -100.981850526049 0.978885780053285 -39.3944480959584 
                0.969715429460666 -37.1744141754595 0.00350041862105898 -100.981850526049 0.22070094836031 -122.521475283525 0.00658570824989764 55.1281575368644 
                0.00356630755086906 -105.660534904813 0.978885780053285 -39.3944480959584 0.00658570824989764 55.1281575368644 0.169188394609002 -131.588833523488 
! Gamma         0.447989494496441 168.369449413314 0                0                0                0                0                0                
!               0                0                0.44924506225872 168.515005561837 0                0                0                0                
!               0                0                0                0                0                0                0                0                
!               0                0                0                0                0                0                0                0                
! Port Impedance50               0                0                0                0                0                0                0                
!               0                0                50               0                0                0                0                0                
!               0                0                0                0                50               0                0                0                
!               0                0                0                0                0                0                50               0                

5                              0.223148048141126 -132.601518150964 0.00634505248646613 50.7881889846283 0.968479747982999 -37.9031365992529 0.00360459637978702 -105.734912508704 
                0.00634505248646613 50.7881889846283 0.172376688240332 -127.347177224456 0.00353829419771052 -100.898447871194 0.978036032849529 -40.1806389419392 
                0.968479747982999 -37.903136599253 0.00353829419771053 -100.898447871194 0.225752526841213 -123.245907135958 0.00667495317520361 55.0090184635605 
                0.00360459637978702 -105.734912508704 0.978036032849529 -40.1806389419392 0.00667495317520361 55.0090184635605 0.173502248027937 -132.549393452487 
! Gamma         0.455588336715291 171.819906734084 0                0                0                0                0                0                
!               0                0                0.456873682188126 171.968458246106 0                0                0                0                
!               0                0                0                0                0                0                0                0                
!               0                0                0                0                0                0                0                0                
! Port Impedance50               0                0                0                0                0                0                0                
!               0                0                50               0                0                0                0                0                
!               0                0                0                0                50               0                0                0                
!               0                0                0                0                0                0                50               0                

5.1                            0.228094909576534 -133.377118227321 0.00641689398709028 49.5245800604003 0.967224390693558 -38.6262654825078 0.00364548325173458 -105.76723114746 
                0.00641689398709027 49.5245800604003 0.176637783860424 -128.021338132122 0.00357868820269852 -100.773460197453 0.977167458017594 -40.9624415325085 
                0.967224390693558 -38.6262654825077 0.00357868820269852 -100.773460197453 0.230787089599442 -124.019399298217 0.00676955934670742 54.8966705792481 
                0.00364548325173458 -105.76723114746 0.977167458017594 -40.9624415325085 0.00676955934670742 54.8966705792481 0.177831315472846 -133.580317671668 
! Gamma         0.463174363727122 175.271370655161 0                0                0                0                0                0                
!               0                0                0.464489485579473 175.422919140937 0                0                0                0                
!               0                0                0                0                0                0                0                0                
!               0                0                0                0                0                0                0                0                
! Port Impedance50               0                0                0                0                0                0                0                
!               0                0                50               0                0                0                0                0                
!               0                0                0                0                50               0                0                0                
!               0                0                0                0                0                0                50               0                

5.2                            0.233058991453807 -134.096198502736 0.00648670873314086 48.2674511574897 0.965958047988862 -39.3438524948504 0.00368959183599477 -105.761881918659 
                0.00648670873314086 48.2674511574897 0.180946595495398 -128.621437422251 0.00362226485392172 -100.612960020542 0.976286492159463 -41.7399138375152 
                0.965958047988862 -39.3438524948503 0.00362226485392172 -100.612960020542 0.235768782994848 -124.838275746673 0.00687007827303355 54.7767464362689 
                0.00368959183599477 -105.761881918659 0.976286492159463 -41.7399138375152 0.00687007827303355 54.7767464362689 0.182138416779747 -134.677282638431 
! Gamma         0.47074807553499 178.723855868721 0                0                0                0                0                0                
!               0                0                0.472092971266532 178.878402937638 0                0                0                0                
!               0                0                0                0                0                0                0                0                
!               0                0                0                0                0                0                0                0                
! Port Impedance50               0                0                0                0                0                0                0                
!               0                0                50               0                0                0                0                0                
!               0                0                0                0                50               0                0                0                
!               0                0                0                0                0                0                50               0                

5.3                            0.238007043743462 -134.761870478796 0.00655448472453384 47.0200713866972 0.96468965168941 -40.0560874492128 0.00373753930734025 -105.724805581622 
                0.00655448472453383 47.0200713866972 0.185268006173603 -129.151233886952 0.00366968095998982 -100.424422244152 0.975399908619744 -42.5132295659991 
                0.964689651689409 -40.0560874492128 0.00366968095998982 -100.424422244152 0.240663451797329 -125.697718002832 0.00697648582044086 54.6351048839558 
                0.00373753930734025 -105.724805581622 0.975399908619745 -42.5132295659991 0.00697648582044086 54.6351048839558 0.186387503378653 -135.834399510842 
! Gamma         0.478309943959522 182.177376558732 0                0                0                0                0                0                
!               0                0                0.47968460997094 182.334923816936 0                0                0                0                
!               0                0                0                0                0                0                0                0                
!               0                0                0                0                0                0                0                0                
! Port Impedance50               0                0                0                0                0                0                0                
!               0                0                50               0                0                0                0                0                
!               0                0                0                0                50               0                0                0                
!               0                0                0                0                0                0                50               0                

5.4                            0.242906101876603 -135.378549176537 0.00662022337700091 45.7856482231995 0.963428040385131 -40.7632935036355 0.00378993535650704 -105.663610320549 
                0.00662022337700091 45.7856482231995 0.189566727381644 -129.616136395336 0.00372157239750044 -100.21679873114 0.974514567615351 -43.2826741829226 
                0.96342804038513 -40.7632935036355 0.00372157239750044 -100.21679873114 0.245439664297397 -126.592026884518 0.00708827454180148 54.4597463199797 
                0.00378993535650705 -105.663610320549 0.974514567615352 -43.2826741829226 0.00708827454180149 54.4597463199797 0.190544704629628 -137.044566938168 
! Gamma         0.48586041428338 185.631946406903 0                0                0                0                0                0                
!               0                0                0.487264845937673 185.792495454981 0                0                0                0                
!               0                0                0                0                0                0                0                0                
!               0                0                0                0                0                0                0                0                
! Port Impedance50               0                0                0                0                0                0                0                
!               0                0                50               0                0                0                0                0                
!               0                0                0                0                50               0                0                0                
!               0                0                0                0                0                0                50               0                

5.5                            0.247724448648434 -135.951687372755 0.0066839435750581 44.5672918824455 0.962181630286399 -41.465917294983 0.00384737572902905 -105.58763835975 
                0.0066839435750581 44.5672918824455 0.193808335156121 -130.022824504061 0.00377853667586647 -100.000541106702 0.973637164175628 -44.0486368724187 
                0.9621816302864  -41.4659172949831 0.00377853667586647 -100.000541106702 0.250069574596084 -127.514874475331 0.00720462162895695 54.2416183988405 
                0.00384737572902906 -105.58763835975 0.973637164175629 -44.0486368724187 0.00720462162895695 54.2416183988405 0.19457923250679 -138.299802391768 
! Gamma         0.493399906773418 189.087578598601 0                0                0                0                0                0                
!               0                0                0.494834098449277 189.251131029326 0                0                0                0                
!               0                0                0                0                0                0                0                0                
!               0                0                0                0                0                0                0                0                
! Port Impedance50               0                0                0                0                0                0                0                
!               0                0                50               0                0                0                0                0                
!               0                0                0                0                50               0                0                0                
!               0                0                0                0                0                0                50               0                

5.6                            0.252432511211313 -136.487513451519 0.00674568549635164 43.3679764613312 0.960958106071368 -42.1645144055377 0.0039104284468501 -105.507981324625 
                0.00674568549635165 43.3679764613312 0.197960249951243 -130.378892198433 0.00384111057059477 -99.7875477666792 0.972773984861686 -44.811598748809 
                0.960958106071368 -42.1645144055377 0.00384111057059476 -99.7875477666792 0.25452961205181 -128.459537902939 0.00732454459772101 53.9744440016322 
                0.0039104284468501 -105.507981324626 0.972773984861685 -44.811598748809 0.007324544597721 53.9744440016322 0.198464135918084 -139.591542716281 
! Gamma         0.500928818091025 192.544285828778 0                0                0                0                0                0                
!               0                0                0.502392763229219 192.710843224921 0                0                0                0                
!               0                0                0                0                0                0                0                0                
!               0                0                0                0                0                0                0                0                
! Port Impedance50               0                0                0                0                0                0                0                
!               0                0                50               0                0                0                0                0                
!               0                0                0                0                50               0                0                0                
!               0                0                0                0                0                0                50               0                

5.7                            0.257003682028271 -136.99278290559 0.00680551392257665 42.1904982244986 0.959764144561876 -42.8597307705136 0.00397961130118658 -105.437428099497 
                0.00680551392257665 42.1904982244986 0.201992648485586 -130.692528429299 0.00390974231930523 -99.5910060917586 0.971930683308532 -45.5721177798157 
                0.959764144561875 -42.8597307705136 0.00390974231930523 -99.5910060917586 0.258800997385875 -129.419110215658 0.00744699651382915 53.6540519206263 
                0.00397961130118659 -105.437428099497 0.971930683308533 -45.5721177798157 0.00744699651382915 53.6540519206263 0.202176902619527 -140.91090996967 
! Gamma         0.508447522600317 196.002080307919 0                0                0                0                0                0                
!               0                0                0.509941213743944 196.171644240118 0                0                0                0                
!               0                0                0                0                0                0                0                0                
!               0                0                0                0                0                0                0                0                
! Port Impedance50               0                0                0                0                0                0                0                
!               0                0                50               0                0                0                0                0                
!               0                0                0                0                50               0                0                0                
!               0                0                0                0                0                0                50               0                

5.8                            0.26141505266728 -137.474549943786 0.00686352074536031 41.0374317887957 0.95860518184142 -43.5522808028402 0.00405535979012788 -105.390315323275 
                0.00686352074536031 41.0374317887957 0.205879294009166 -130.972241321539 0.00398475882363704 -99.4251021949113 0.971112083234933 -46.3308110225142 
                0.95860518184142 -43.5522808028403 0.00398475882363703 -99.4251021949113 0.262870092166784 -130.386686685206 0.00757089577740227 53.2776592999138 
                0.00405535979012789 -105.390315323275 0.971112083234934 -46.3308110225142 0.00757089577740227 53.2776592999138 0.20569991157332 -142.248942590112 
! Gamma         0.515956373583175 199.460973768042 0                0                0                0                0                0                
!               0                0                0.517479802412511 199.633545792742 0                0                0                0                
!               0                0                0                0                0                0                0                0                
!               0                0                0                0                0                0                0                0                
! Port Impedance50               0                0                0                0                0                0                0                
!               0                0                50               0                0                0                0                0                
!               0                0                0                0                50               0                0                0                
!               0                0                0                0                0                0                50               0                

5.9                            0.265648047765587 -137.939962600302 0.00691982638925123 39.9110853266762 0.957485231850241 -44.2429231339614 0.004137985548756 -105.382242663931 
                0.00691982638925124 39.9110853266762 0.20959826830646 -131.226627438476 0.00406632956761769 -99.3045796540418 0.970322015819606 -47.0883348748606 
                0.95748523185024 -44.2429231339614 0.00406632956761769 -99.3045796540418 0.266728593198855 -131.355527156545 0.00769510877096104 52.8433599507362 
                0.00413798554875601 -105.382242663932 0.970322015819606 -47.0883348748606 0.00769510877096104 52.8433599507362 0.209020741955785 -143.596794594608 
! Gamma         0.523455704369436 202.920977468766 0                0                0                0                0                0                
!               0                0                0.525008861732073 203.096559126215 0                0                0                0                
!               0                0                0                0                0                0                0                0                
!               0                0                0                0                0                0                0                0                
! Port Impedance50               0                0                0                0                0                0                0                
!               0                0                50               0                0                0                0                0                
!               0                0                0                0                50               0                0                0                
!               0                0                0                0                0                0                50               0                

6                              0.269688944299663 -138.396082303864 0.00697457990823695 38.8134562572279 0.956406761751689 -44.9324349423438 0.00422762669517335 -105.429614577711 
                0.00697457990823695 38.8134562572279 0.213132585668579 -131.464183357866 0.00415443043449978 -99.2441456883408 0.969563196389896 -47.8453641097582 
                0.956406761751689 -44.9324349423438 0.00415443043449978 -99.2441456883409 0.270373585824586 -132.319196623901 0.00781840839846361 52.3498976528199 
                0.00422762669517336 -105.429614577711 0.969563196389897 -47.8453641097582 0.00781840839846361 52.3498976528199 0.212132347051922 -144.945907096252 
! Gamma         0.530945829389995 206.382102203447 0                0                0                0                0                0                
!               0                0                0.532528705326849 206.560695015767 0                0                0                0                
!               0                0                0                0                0                0                0                0                
!               0                0                0                0                0                0                0                0                
! Port Impedance50               0                0                0                0                0                0                0                
!               0                0                50               0                0                0                0                0                
!               0                0                0                0                50               0                0                0                
!               0                0                0                0                0                0                50               0                

6.1                            0.273529259387394 -138.849727062405 0.00702795756648778 37.74618921214   0.955370626637128 -45.6215858648762 0.00432419358462011 -105.548980034023 
                0.00702795756648777 37.7461892121401 0.216470667236392 -131.693153961209 0.00424881209554764 -99.2577473026   0.968837143351706 -48.6025704829762 
                0.955370626637127 -45.6215858648761 0.00424881209554764 -99.2577473026   0.273807470567285 -133.271687096454 0.00793942772324846 51.7967072630913 
                0.00432419358462012 -105.548980034023 0.968837143351706 -48.6025704829762 0.00793942772324846 51.7967072630913 0.21503310214484 -146.288157156613 
! Gamma         0.538427045159974 209.844358305416 0                0                0                0                0                0                
!               0                0                0.540039628927739 210.025963774732 0                0                0                0                
!               0                0                0                0                0                0                0                0                
!               0                0                0                0                0                0                0                0                
! Port Impedance50               0                0                0                0                0                0                0                
!               0                0                50               0                0                0                0                0                
!               0                0                0                0                50               0                0                0                
!               0                0                0                0                0                0                50               0                

6.2                            0.277165989039336 -139.307336219276 0.0070801597882468 36.7105383395081 0.954376063570482 -46.3111124632056 0.00442731623228218 -105.756164897094 
                0.00708015978824679 36.7105383395081 0.219606654385318 -131.921410115508 0.00434897882295913 -99.3577686325178 0.968144140340644 -49.3606016919342 
                0.954376063570482 -46.3111124632056 0.00434897882295913 -99.3577686325178 0.277037776274998 -134.207524108165 0.00805662307411503 51.1841719030349 
                0.00442731623228218 -105.756164897094 0.968144140340645 -49.3606016919341 0.00805662307411503 51.1841719030349 0.217726735368693 -147.615989064511 
! Gamma         0.545899631198606 213.307755654309 0                0                0                0                0                0                
!               0                0                0.547541911289126 213.492375260946 0                0                0                0                
!               0                0                0                0                0                0                0                0                
!               0                0                0                0                0                0                0                0                
! Port Impedance50               0                0                0                0                0                0                0                
!               0                0                50               0                0                0                0                0                
!               0                0                0                0                50               0                0                0                
!               0                0                0                0                0                0                50               0                

6.3                            0.2806016811749  -139.774854088647 0.00713140645656514 35.7073362088349 0.95342074267956 -47.0016941526505 0.00453630276161017 -106.06523031973 
                0.00713140645656514 35.7073362088349 0.222540542596814 -132.156347693005 0.00445418396232682 -99.5542292129394 0.967483240806245 -50.1200614131528 
                0.953420742679561 -47.0016941526505 0.00445418396232682 -99.5542292129394 0.280076870465001 -135.121861005633 0.00816825800345266 50.5140381968898 
                0.00453630276161017 -106.065230319731 0.967483240806246 -50.1200614131528 0.00816825800345267 50.5140381968898 0.220222149509744 -148.92253269785 
! Gamma         0.553363850891907 216.772303682504 0                0                0                0                0                0                
!               0                0                0.555035815048917 216.95993888325  0                0                0                0                
!               0                0                0                0                0                0                0                0                
!               0                0                0                0                0                0                0                0                
! Port Impedance50               0                0                0                0                0                0                0                
!               0                0                50               0                0                0                0                0                
!               0                0                0                0                50               0                0                0                
!               0                0                0                0                0                0                50               0                

6.4                            0.283844329179067 -140.257629624675 0.0071819306558311 34.7369716417965 0.952500871053226 -47.6939314026042 0.00465012074917207 -106.487342572569 
                0.0071819306558311 34.7369716417965 0.225278122497525 -132.404800009696 0.00456344736819147 -99.8540838893354 0.966852312737422 -50.8814910678232 
                0.952500871053225 -47.6939314026041 0.00456344736819147 -99.8540838893355 0.282941574470676 -136.010563492677 0.00827241822276404 49.789929548621  
                0.00465012074917207 -106.487342572569 0.966852312737423 -50.8814910678232 0.00827241822276404 49.789929548621  0.222533141130324 -150.201712775789 
! Gamma         0.560819952303715 220.238011381664 0                0                0                0                0                0                
!               0                0                0.562521587537369 220.4286636081   0                0                0                0                
!               0                0                0                0                0                0                0                0                
!               0                0                0                0                0                0                0                0                
! Port Impedance50               0                0                0                0                0                0                0                
!               0                0                50               0                0                0                0                0                
!               0                0                0                0                50               0                0                0                
!               0                0                0                0                0                0                50               0                

6.5                            0.286907077373319 -140.760329562806 0.00723197108454389 33.7993786164334 0.951611343642502 -48.3883268923991 0.00476741383049192 -107.02969611872 
                0.0072319710845439 33.7993786164334 0.227830722014338 -132.672956667167 0.00467559752576722 -100.260730406124 0.966248120047769 -51.6453538647739 
                0.951611343642502 -48.388326892399 0.00467559752576722 -100.260730406124 0.285652687868526 -136.87028589563 0.00836706670309804 49.0178887212722 
                0.00476741383049192 -107.02969611872 0.966248120047769 -51.6453538647739 0.00836706670309805 49.0178887212722 0.224678021448314 -151.448351601417 
! Gamma         0.568268168940163 223.704887309394 0                0                0                0                0                0                
!               0                0                0.569999461539688 223.898557966293 0                0                0                0                
!               0                0                0                0                0                0                0                0                
!               0                0                0                0                0                0                0                0                
! Port Impedance50               0                0                0                0                0                0                0                
!               0                0                50               0                0                0                0                0                
!               0                0                0                0                50               0                0                0                
!               0                0                0                0                0                0                50               0                

6.6                            0.289807736828597 -141.286863125156 0.00728176349950371 32.8940378687717 0.950745934199685 -49.0852701638059 0.00488656280791323 -107.694675133635 
                0.0072817634995037 32.8940378687717 0.23021475219915 -132.96628335561 0.00478933697504325 -100.773814055814 0.965666436278967 -52.4120215559424 
                0.950745934199685 -49.0852701638059 0.00478933697504325 -100.773814055814 0.288234424139779 -137.698539321004 0.00845014576540808 48.2068639230313 
                0.00488656280791323 -107.694675133634 0.965666436278968 -52.4120215559424 0.00845014576540808 48.2068639230313 0.226679141507814 -152.658266371922 
! Gamma         0.575708720472136 227.17293959601  0                0                0                0                0                0                
!               0                0                0.577469656016963 227.369630059795 0                0                0                0                
!               0                0                0                0                0                0                0                0                
!               0                0                0                0                0                0                0                0                
! Port Impedance50               0                0                0                0                0                0                0                
!               0                0                50               0                0                0                0                0                
!               0                0                0                0                50               0                0                0                
!               0                0                0                0                0                0                50               0                

6.7                            0.292568118561692 -141.840317319968 0.00733153166582689 32.0199918881953 0.949897518509568 -49.7850261589468 0.00500579284445936 -108.479446617388 
                0.0073315316658269 32.0199918881953 0.232451068420021 -133.289439300757 0.00490332477745475 -101.389379104574 0.965102185732423 -53.1817642190266 
                0.949897518509568 -49.7850261589469 0.00490332477745475 -101.389379104574 0.290713758206771 -138.493750408681 0.00851972763764735 47.369032121901  
                0.00500579284445936 -108.479446617388 0.965102185732423 -53.1817642190266 0.00851972763764735 47.369032121901  0.228562322775181 -153.828360343836 
! Gamma         0.583141813419812 230.642175951417 0                0                0                0                0                0                
!               0                0                0.58493237678947 230.841887568694 0                0                0                0                
!               0                0                0                0                0                0                0                0                
!               0                0                0                0                0                0                0                0                
! Port Impedance50               0                0                0                0                0                0                0                
!               0                0                50               0                0                0                0                0                
!               0                0                0                0                50               0                0                0                
!               0                0                0                0                0                0                50               0                

6.8                            0.295213200778564 -142.422902976792 0.00738147834628837 31.1758727471374 0.949058321740214 -50.4877278779073 0.0051233169646121 -109.37613203887 
                0.00738147834628837 31.1758727471374 0.234564167545088 -133.646191556551 0.00501626543533459 -102.100360350518 0.964549606862349 -53.9547432620566 
                0.949058321740214 -50.4877278779073 0.0050162654353346 -102.100360350518 0.293119686917787 -139.25530787217 0.00857420579253448 46.5198392621641 
                0.0051233169646121 -109.376132038869 0.96454960686235 -53.9547432620566 0.00857420579253448 46.5198392621641 0.230356193880929 -154.956705169786 
! Gamma         0.590567641802902 234.112603672098 0                0                0                0                0                0                
!               0                0                0.592387817185932 234.315337758253 0                0                0                0                
!               0                0                0                0                0                0                0                0                
!               0                0                0                0                0                0                0                0                
! Port Impedance50               0                0                0                0                0                0                0                
!               0                0                50               0                0                0                0                0                
!               0                0                0                0                50               0                0                0                
!               0                0                0                0                0                0                50               0                

6.9                            0.297770156819584 -143.035912804795 0.00743177684107536 30.3599408796978 0.948220181627543 -51.1933732402307 0.00523749417588855 -110.372601490146 
                0.00743177684107537 30.3599408796978 0.2365812498842  -134.03932805059 0.005126991351827 -102.897348212215 0.96400243270293 -54.7310077306118 
                0.948220181627543 -51.1933732402306 0.00512699135182701 -102.897348212215 0.295482406137368 -139.983592635635 0.00861250702017221 45.6776426169705 
                0.00523749417588855 -110.372601490146 0.964002432702931 -54.7310077306118 0.00861250702017221 45.6776426169705 0.23209143528162 -156.042609711147 
! Gamma         0.5979863877598  237.58422964821  0                0                0                0                0                0                
!               0                0                0.599836158661933 237.789987486072 0                0                0                0                
!               0                0                0                0                0                0                0                0                
!               0                0                0                0                0                0                0                0                
! Port Impedance50               0                0                0                0                0                0                0                
!               0                0                50               0                0                0                0                0                
!               0                0                0                0                50               0                0                0                
!               0                0                0                0                0                0                50               0                

7                              0.300267280148581 -143.679693780495 0.00748256348175619 29.5701319148913 0.947374819363253 -51.9018260941611 0.00534697283600814 -111.453796899291 
                0.00748256348175621 29.5701319148912 0.238531181650934 -134.470573922035 0.00523452659083608 -103.769513108923 0.963454083198573 -55.5104938940892 
                0.947374819363253 -51.9018260941611 0.00523452659083609 -103.769513108923 0.29783241301408 -140.679986336603 0.00863429133488198 44.8628786985646 
                0.00534697283600815 -111.453796899291 0.963454083198573 -55.5104938940892 0.00863429133488197 44.8628786985646 0.233799936529527 -157.086668789859 
! Gamma         0.605398222138398 241.057060370781 0                0                0                0                0                0                
!               0                0                0.6072775713902  241.265843209349 0                0                0                0                
!               0                0                0                0                0                0                0                0                
!               0                0                0                0                0                0                0                0                
! Port Impedance50               0                0                0                0                0                0                0                
!               0                0                50               0                0                0                0                0                
!               0                0                0                0                50               0                0                0                
!               0                0                0                0                0                0                50               0                

7.1                            0.302732851436477 -144.353636896803 0.00753393132354462 28.8041083221953 0.946514110435379 -52.6128211911704 0.00545079054729962 -112.603362681681 
                0.00753393132354463 28.8041083221952 0.240443399422026 -134.940517956161 0.00533812336465384 -104.70555246162 0.962897864508869 -56.2930279951804 
                0.946514110435379 -52.6128211911703 0.00533812336465385 -104.70555246162 0.300199549115312 -141.346852497396 0.00864009821721593 44.0967575718892 
                0.00545079054729963 -112.603362681681 0.962897864508869 -56.2930279951804 0.00864009821721593 44.0967575718892 0.235513875823563 -158.090783954471 
! Gamma         0.61280330506099 244.531101939007 0                0                0                0                0                0                
!               0                0                0.614712214825146 244.742910992246 0                0                0                0                
!               0                0                0                0                0                0                0                0                
!               0                0                0                0                0                0                0                0                
! Port Impedance50               0                0                0                0                0                0                0                
!               0                0                50               0                0                0                0                0                
!               0                0                0                0                50               0                0                0                
!               0                0                0                0                0                0                50               0                

7.2                            0.305193999860879 -145.056187591281 0.00758592512734707 28.0593130311061 0.945630348232355 -53.3259728342862 0.00554841176104397 -113.805290380073 
                0.00758592512734708 28.059313031106  0.242346802470139 -135.448557513528 0.00543726828035874 -105.694531282934 0.962327170629458 -57.0783319678643 
                0.945630348232355 -53.3259728342862 0.00543726828035874 -105.694531282934 0.302612008917891 -141.987485000624 0.00863139879440048 43.3995935627748 
                0.00554841176104398 -113.805290380073 0.962327170629458 -57.0783319678643 0.00863139879440047 43.3995935627748 0.237264738503993 -159.058147729939 
! Gamma         0.620201786465296 248.006360067636 0                0                0                0                0                0                
!               0                0                0.6221402382437  248.221196513342 0                0                0                0                
!               0                0                0                0                0                0                0                0                
!               0                0                0                0                0                0                0                0                
! Port Impedance50               0                0                0                0                0                0                0                
!               0                0                50               0                0                0                0                0                
!               0                0                0                0                50               0                0                0                
!               0                0                0                0                0                0                50               0                

7.3                            0.307675615526343 -145.784879921706 0.00763853763517294 27.3330230906464 0.944716493922237 -54.0407868194822 0.00563970005684163 -115.045294928437 
                0.00763853763517295 27.3330230906463 0.244268681872105 -135.992871007692 0.00553166122912144 -106.72652041615 0.961735682980293 -57.8660318646917 
                0.944716493922238 -54.0407868194822 0.00553166122912145 -106.72652041615 0.305095347671411 -142.606019797119 0.00861052775995884 42.7889968165907 
                0.00563970005684164 -115.045294928437 0.961735682980294 -57.8660318646917 0.00861052775995884 42.7889968165907 0.239082299701372 -159.993183325524 
! Gamma         0.627593806623316 251.482840094445 0                0                0                0                0                0                
!               0                0                0.629561781264096 251.700705073169 0                0                0                0                
!               0                0                0                0                0                0                0                0                
!               0                0                0                0                0                0                0                0                
! Port Impedance50               0                0                0                0                0                0                0                
!               0                0                50               0                0                0                0                0                
!               0                0                0                0                50               0                0                0                
!               0                0                0                0                0                0                50               0                

7.4                            0.310199371770026 -146.53639675235 0.007691707142916 26.6224023651284 0.943766406914469 -54.7566752216532 0.00572483769757201 -116.311726303314 
                0.00769170714291601 26.6224023651284 0.246233736732002 -136.570426522926 0.00562117430351438 -107.792983545753 0.961117563942819 -58.6556686847738 
                0.943766406914469 -54.7566752216532 0.00562117430351439 -107.792983545753 0.30767153155579 -143.207308071742 0.00858049452246444 42.278229020509  
                0.00572483769757201 -116.311726303314 0.96111756394282 -58.6556686847738 0.00858049452246444 42.278229020509  0.240993605581166 -160.901433638168 
! Gamma         0.634979496639454 254.960546987798 0                0                0                0                0                0                
!               0                0                0.636976974344041 255.181441601835 0                0                0                0                
!               0                0                0                0                0                0                0                0                
!               0                0                0                0                0                0                0                0                
! Port Impedance50               0                0                0                0                0                0                0                
!               0                0                50               0                0                0                0                0                
!               0                0                0                0                50               0                0                0                
!               0                0                0                0                0                0                50               0                

7.5                            0.312782914449713 -147.306656928728 0.00774531644119368 25.9245527834709 0.942775051050964 -55.4729735315011 0.00580421509082853 -117.595944859506 
                0.00774531644119369 25.9245527834708 0.248263227252871 -137.177033536476 0.00570580034515102 -108.886911777378 0.960467640651273 -59.4467112604059 
                0.942775051050965 -55.4729735315011 0.00570580034515102 -108.886911777378 0.310358079719604 -143.796752265501 0.00854470271108483 41.8750306766704 
                0.00580421509082853 -117.595944859506 0.960467640651273 -59.4467112604059 0.00854470271108483 41.8750306766704 0.243021996253649 -161.789396685069 
! Gamma         0.642358978929046 258.439485354264 0                0                0                0                0                0                
!               0                0                0.64438593925939 258.663410666711 0                0                0                0                
!               0                0                0                0                0                0                0                0                
!               0                0                0                0                0                0                0                0                
! Port Impedance50               0                0                0                0                0                0                0                
!               0                0                50               0                0                0                0                0                
!               0                0                0                0                50               0                0                0                
!               0                0                0                0                0                0                50               0                

7.6                            0.315439269599317 -148.090928814912 0.00779919327556313 25.2365635904325 0.941738672498568 -56.1889596269666 0.00587831491702218 -118.892206723831 
                0.00779919327556315 25.2365635904324 0.2503743110692  -137.807442038939 0.00578560059184482 -110.002742308444 0.959781575625816 -60.2385708429403 
                0.941738672498568 -56.1889596269666 0.00578560059184483 -110.002742308444 0.313167350574644 -144.380110076397 0.00850662995174926 41.5811411804604 
                0.00587831491702219 -118.892206723831 0.959781575625817 -60.2385708429403 0.00850662995174926 41.5811411804604 0.245186219880429 -162.664309146928 
! Gamma         0.64973236767823 261.919659446321 0                0                0                0                0                0                
!               0                0                0.651788789564224 262.146616480195 0                0                0                0                
!               0                0                0                0                0                0                0                0                
!               0                0                0                0                0                0                0                0                
! Port Impedance50               0                0                0                0                0                0                0                
!               0                0                50               0                0                0                0                0                
!               0                0                0                0                50               0                0                0                
!               0                0                0                0                0                0                50               0                

7.7                            0.31817651074458 -148.883967871574 0.00785311251845872 24.5555575031495 0.940654946060987 -56.9038740614324 0.00594761116176078 -120.197185039582 
                0.00785311251845874 24.5555575031493 0.25257960245114 -138.455489919593 0.00586065901349538 -111.136120163193 0.959056021031036 -61.0306170263557 
                0.940654946060988 -56.9038740614325 0.00586065901349539 -111.136120163193 0.316106022303824 -144.963275334835 0.00846952708575952 41.3925784743926 
                0.00594761116176078 -120.197185039582 0.959056021031036 -61.0306170263557 0.00846952708575952 41.3925784743926 0.24749969021511 -163.533885023687 
! Gamma         0.65709976928585 265.401073170101 0                0                0                0                0                0                
!               0                0                0.659185631033028 265.631062907518 0                0                0                0                
!               0                0                0                0                0                0                0                0                
!               0                0                0                0                0                0                0                0                
! Port Impedance50               0                0                0                0                0                0                0                
!               0                0                50               0                0                0                0                0                
!               0                0                0                0                50               0                0                0                
!               0                0                0                0                0                0                50               0                

7.8                            0.320997712664259 -149.680174406477 0.00790680021394903 23.8787319449221 0.939523087230326 -57.6169411677872 0.00601249537001499 -121.509283464037 
                0.00790680021394904 23.878731944922  0.254886983086799 -139.114295719406 0.00593104818519306 -112.283569027025 0.958288753407777 -61.8221946574196 
                0.939523087230326 -57.6169411677872 0.00593104818519307 -112.283569027025 0.319174809229769 -145.552047868303 0.00843618581324242 41.3005746053465 
                0.00601249537001499 -121.509283464037 0.958288753407778 -61.8221946574196 0.00843618581324243 41.3005746053464 0.249969937484011 -164.406021756446 
! Gamma         0.664461282787926 268.883730093198 0                0                0                0                0                0                
!               0                0                0.666576562085484 269.116753474618 0                0                0                0                
!               0                0                0                0                0                0                0                0                
!               0                0                0                0                0                0                0                0                
! Port Impedance50               0                0                0                0                0                0                0                
!               0                0                50               0                0                0                0                0                
!               0                0                0                0                50               0                0                0                
!               0                0                0                0                0                0                50               0                

7.9                            0.323901199852033 -150.47376643547 0.00795993954658845 23.2033929151087 0.938343927703571 -58.3273905078433 0.00607323438099069 -122.827888484954 
                0.00795993954658846 23.2033929151086 0.25729967793019 -139.776490227402 0.00599680875473624 -113.442132287283 0.957478785627605 -62.6126413999272 
                0.938343927703571 -58.3273905078433 0.00599680875473626 -113.442132287283 0.322368441716501 -146.151906547328 0.0084088015811291 41.2929350405019 
                0.00607323438099068 -122.827888484954 0.957478785627606 -62.6126413999272 0.0084088015811291 41.2929350405019 0.252598294504874 -165.288490670062 
! Gamma         0.671817000265067 272.367633452514 0                0                0                0                0                0                
!               0                0                0.673961674194228 272.603691376042 0                0                0                0                
!               0                0                0                0                0                0                0                0                
!               0                0                0                0                0                0                0                0                
! Port Impedance50               0                0                0                0                0                0                0                
!               0                0                50               0                0                0                0                0                
!               0                0                0                0                50               0                0                0                
!               0                0                0                0                0                0                50               0                

8                              0.326881076293004 -151.258961867221 0.00801217861029607 22.5269787769503 0.93711995226938 -59.0344782340717 0.00612995763418854 -124.152673725091 
                0.00801217861029608 22.5269787769502 0.259816590521082 -140.434477341966 0.00605794225184677 -114.609033264273 0.956626452556158 -63.4013056412981 
                0.93711995226938 -59.0344782340717 0.00605794225184677 -114.609033264273 0.32567591886878 -146.76780020568 0.00838893370216723 41.3555391485519 
                0.00612995763418853 -124.152673725091 0.956626452556157 -63.4013056412981 0.00838893370216723 41.3555391485519 0.255379846505211 -166.188631404575 
! Gamma         0.679167007233057 275.852786162143 0                0                0                0                0                0                
!               0                0                0.681341052275799 276.091879482896 0                0                0                0                
!               0                0                0                0                0                0                0                0                
!               0                0                0                0                0                0                0                0                
! Port Impedance50               0                0                0                0                0                0                0                
!               0                0                50               0                0                0                0                0                
!               0                0                0                0                50               0                0                0                
!               0                0                0                0                0                0                50               0                

8.1                            0.329927999875498 -152.030163971737 0.00806313963483339 21.8470714124641 0.935855294938481 -59.7375079677191 0.00618266847341027 -125.483028704106 
                0.0080631396348334 21.847071412464  0.262432870489006 -141.08071244619 0.00611441537884159 -115.781388757027 0.955733466525232 -64.1875644462687 
                0.935855294938482 -59.7375079677191 0.0061144153788416 -115.781388757027 0.329081022561568 -147.403969882799 0.0083775453811914 41.4737281043295 
                0.00618266847341025 -125.483028704106 0.955733466525232 -64.1875644462687 0.0083775453811914 41.4737281043296 0.258303655435011 -167.11307054379 
! Gamma         0.686511383016748 279.339190821283 0                0                0                0                0                0                
!               0                0                0.688714775064907 279.581320350809 0                0                0                0                
!               0                0                0                0                0                0                0                0                
!               0                0                0                0                0                0                0                0                
! Port Impedance50               0                0                0                0                0                0                0                
!               0                0                50               0                0                0                0                0                
!               0                0                0                0                50               0                0                0                
!               0                0                0                0                0                0                50               0                

8.2                            0.333030141750892 -152.782144206421 0.00811242909153526 21.1613928300073 0.934555692006844 -60.4358508268542 0.00623127238030623 -126.817647413234 
                0.00811242909153527 21.1613928300072 0.265140663659351 -141.707985381394 0.00616617300569741 -116.955995624786 0.954802938291493 -64.970841268706 
                0.934555692006844 -60.4358508268542 0.00616617300569742 -116.955995624786 0.33256306091457 -148.06381299176 0.00837509649077899 41.63340782162   
                0.00623127238030622 -126.817647413234 0.954802938291493 -64.970841268706 0.00837509649077899 41.6334078216199 0.261353249664697 -168.067482736351 
! Gamma         0.693850201107299 282.82684972217  0                0                0                0                0                0                
!               0                0                0.696082915472039 283.072016227928 0                0                0                0                
!               0                0                0                0                0                0                0                0                
!               0                0                0                0                0                0                0                0                
! Port Impedance50               0                0                0                0                0                0                0                
!               0                0                50               0                0                0                0                0                
!               0                0                0                0                50               0                0                0                
!               0                0                0                0                0                0                50               0                

8.3                            0.336174250468925 -153.510216776748 0.00815964787278404 20.4677863900106 0.933228389509685 -61.1289642541304 0.00627561504250934 -128.15428348215 
                0.00815964787278405 20.4677863900106 0.267929974824442 -142.309694884156 0.00621315673565971 -118.12919791971 0.953839358828686 -65.7506231251244 
                0.933228389509685 -61.1289642541304 0.00621315673565971 -118.12919791971 0.336097791906139 -148.749796006556 0.00838166112654712 41.8217915554061 
                0.00627561504250933 -128.15428348215 0.953839358828685 -65.7506231251244 0.00838166112654711 41.8217915554061 0.264507350261682 -169.056408518253 
! Gamma         0.701183529502733 286.315764858026 0                0                0                0                0                0                
!               0                0                0.703445540924379 286.563969062924 0                0                0                0                
!               0                0                0                0                0                0                0                0                
!               0                0                0                0                0                0                0                0                
! Port Impedance50               0                0                0                0                0                0                0                
!               0                0                50               0                0                0                0                0                
!               0                0                0                0                50               0                0                0                
!               0                0                0                0                0                0                50               0                

8.4                            0.339346725014893 -154.210399607852 0.00820440054840794 19.7641832810417 0.931882002380366 -61.8164092945029 0.00631552394589143 -129.489659369995 
                0.00820440054840793 19.7641832810416 0.270789557489588 -142.880101876201 0.00625532595462161 -119.296832674758 0.952848537201463 -66.526476912234 
                0.931882002380366 -61.8164092945028 0.00625532595462161 -119.296832674758 0.339658465615749 -149.463417711194 0.00839704713367209 42.0277896121604 
                0.00631552394589142 -129.489659369995 0.952848537201463 -66.5264769122339 0.00839704713367209 42.0277896121604 0.26774078799111 -170.083137457715 
! Gamma         0.708511431031733 289.805937931008 0                0                0                0                0                0                
!               0                0                0.710802713689944 290.057180512993 0                0                0                0                
!               0                0                0                0                0                0                0                0                
!               0                0                0                0                0                0                0                0                
! Port Impedance50               0                0                0                0                0                0                0                
!               0                0                50               0                0                0                0                0                
!               0                0                0                0                50               0                0                0                
!               0                0                0                0                0                0                50               0                

8.5                            0.342534591904078 -154.87955654317 0.00824630257423383 19.0485566490525 0.930526322705297 -62.4978659590882 0.0063508483272935 -130.819505441115 
                0.00824630257423383 19.0485566490525 0.273707736050746 -143.414549994861 0.00629267859753891 -120.454245751173 0.951837490025069 -67.2980645197022 
                0.930526322705297 -62.4978659590882 0.00629267859753891 -120.454245751173 0.34321691795264 -150.205220631393 0.00842090240446015 42.2421071078688 
                0.00635084832729348 -130.819505441115 0.95183749002507 -67.2980645197022 0.00842090240446015 42.2421071078688 0.271025552793455 -171.149659050985 
! Gamma         0.715833963660559 293.297370360163 0                0                0                0                0                0                
!               0                0                0.718154491184814 293.551651951868 0                0                0                0                
!               0                0                0                0                0                0                0                0                
!               0                0                0                0                0                0                0                0                
! Port Impedance50               0                0                0                0                0                0                0                
!               0                0                50               0                0                0                0                0                
!               0                0                0                0                50               0                0                0                
!               0                0                0                0                0                0                50               0                

8.6                            0.34572628054564 -155.515515490181 0.00828498428951508 18.3188677478792 0.929172074864978 -63.1731462877728 0.00638149359187806 -132.138698986338 
                0.00828498428951507 18.3188677478793 0.276673065383241 -143.909642970547 0.00632526936465702 -121.596364809937 0.950814278694303 -68.0651563553838 
                0.929172074864978 -63.1731462877728 0.00632526936465702 -121.596364809937 0.346744649970434 -150.97484455887 0.00845280014253736 42.457133759455  
                0.00638149359187805 -132.138698986338 0.950814278694303 -68.0651563553839 0.00845280014253736 42.457133759455  0.274331911000437 -172.256677915551 
! Gamma         0.72315118078294 296.790063289368 0                0                0                0                0                0                
!               0                0                0.725500926263327 297.047384477812 0                0                0                0                
!               0                0                0                0                0                0                0                0                
!               0                0                0                0                0                0                0                0                
! Port Impedance50               0                0                0                0                0                0                0                
!               0                0                50               0                0                0                0                0                
!               0                0                0                0                50               0                0                0                
!               0                0                0                0                0                0                50               0                

8.7                            0.348912098579252 -156.117156914948 0.00832009061265763 17.5730105042195 0.927830616113535 -63.8422046973348 0.00640744757994939 -133.441471501321 
                0.00832009061265762 17.5730105042195 0.279674741081325 -144.363369713667 0.00635322373295966 -122.717814114933 0.949787791657246 -68.8276428720218 
                0.927830616113535 -63.8422046973348 0.00635322373295966 -122.717814114933 0.350213834260843 -151.771113469637 0.00849230106759296 42.6667094120447 
                0.00640744757994938 -133.441471501321 0.949787791657247 -68.8276428720218 0.00849230106759296 42.6667094120447 0.277629525309275 -173.403685001854 
! Gamma         0.730463131492805 300.28401759526  0                0                0                0                0                0                
!               0                0                0.732842067491058 300.544378921596 0                0                0                0                
!               0                0                0                0                0                0                0                0                
!               0                0                0                0                0                0                0                0                
! Port Impedance50               0                0                0                0                0                0                0                
!               0                0                50               0                0                0                0                0                
!               0                0                0                0                50               0                0                0                
!               0                0                0                0                0                0                50               0                

8.8                            0.352084324255085 -156.684466633894 0.00835127554325625 16.8087628235807 0.926513582243155 -64.5051451809862 0.00642879730825233 -134.721653632904 
                0.00835127554325625 16.8087628235807 0.282702689791606 -144.77516917379 0.00637674677878333 -123.813055196652 0.948767470421064 -69.5855436689011 
                0.926513582243155 -64.5051451809862 0.00637674677878334 -123.813055196652 0.353598201952102 -152.592145791519 0.00853899431839092 42.8658349779027 
                0.00642879730825232 -134.721653632904 0.948767470421066 -69.5855436689011 0.00853899431839092 42.8658349779027 0.280888518037366 -174.589073237373 
! Gamma         0.737769860839687 303.779233895141 0                0                0                0                0                0                
!               0                0                0.740177959400452 304.042635854459 0                0                0                0                
!               0                0                0                0                0                0                0                0                
!               0                0                0                0                0                0                0                0                
! Port Impedance50               0                0                0                0                0                0                0                
!               0                0                50               0                0                0                0                0                
!               0                0                0                0                50               0                0                0                
!               0                0                0                0                0                0                50               0                

8.9                            0.355236854807009 -157.218546389334 0.00837819090922114 16.0237546475883 0.92523247931932 -65.1622249139763 0.00644573596094909 -135.972930377383 
                0.00837819090922114 16.0237546475883 0.28574729153049 -145.145928163145 0.00639612650074093 -124.876538161046 0.947762979561453 -70.339013742107 
                0.92523247931932 -65.1622249139763 0.00639612650074093 -124.876538161046 0.356873778557764 -153.435477836565 0.00859252082456212 43.0503789979303 
                0.00644573596094908 -135.972930377383 0.947762979561453 -70.339013742107 0.00859252082456212 43.0503789979303 0.284080428251655 -175.810284375276 
! Gamma         0.745071410066664 307.27571255485  0                0                0                0                0                0                
!               0                0                0.747508642728959 307.542155596024 0                0                0                0                
!               0                0                0                0                0                0                0                0                
!               0                0                0                0                0                0                0                0                
! Port Impedance50               0                0                0                0                0                0                0                
!               0                0                50               0                0                0                0                0                
!               0                0                0                0                50               0                0                0                
!               0                0                0                0                0                0                50               0                

9                              0.35836437637076 -157.721575349777 0.00840046925940816 15.2154640538895 0.923998223954422 -65.813853818082 0.00645856090323724 -137.189083814953 
                0.00840046925940815 15.2154640538895 0.288798712452098 -145.477906424779 0.00641173195022855 -125.902850392534 0.946783822610613 -71.0883464700839 
                0.923998223954422 -65.813853818082 0.00641173195022856 -125.902850392534 0.360019452312991 -154.298191065947 0.00865258361617383 43.2168107255472 
                0.00645856090323723 -137.189083814953 0.946783822610614 -71.0883464700839 0.00865258361617383 43.2168107255472 0.287179026435428 -177.063973720124 
! Gamma         0.752367816830721 310.773453696608 0                0                0                0                0                0                
!               0                0                0.754834154639542 311.042938222199 0                0                0                0                
!               0                0                0                0                0                0                0                0                
!               0                0                0                0                0                0                0                0                
! Port Impedance50               0                0                0                0                0                0                0                
!               0                0                50               0                0                0                0                0                
!               0                0                0                0                50               0                0                0                
!               0                0                0                0                0                0                50               0                

9.1                            0.361461050655307 -158.196715544012 0.0084177013883205 14.3812534179153 0.92282063615196 -66.4605896400697 0.00646766426818477 -138.36420640954 
                0.0084177013883205 14.3812534179153 0.291845855326956 -145.774584321249 0.0064240069843638 -126.886852320943 0.945838907228497 -71.8339729385266 
                0.922820636151961 -66.4605896400697 0.0064240069843638 -126.886852320943 0.363017372931853 -155.177035397298 0.00871894939042847 43.3619744394455 
                0.00646766426818477 -138.36420640954 0.945838907228497 -71.8339729385266 0.00871894939042846 43.3619744394455 0.290160964723874 -178.346180538837 
! Gamma         0.759659115405418 314.272457206817 0                0                0                0                0                0                
!               0                0                0.762154528923468 314.544983573008 0                0                0                0                
!               0                0                0                0                0                0                0                0                
!               0                0                0                0                0                0                0                0                
! Port Impedance50               0                0                0                0                0                0                0                
!               0                0                50               0                0                0                0                0                
!               0                0                0                0                50               0                0                0                
!               0                0                0                0                0                0                50               0                

9.2                            0.364518745321108 -158.647954382904 0.00842940968131434 13.5184576711206 0.92170789044878 -67.1031280964676 0.00647351816996502 -139.492874193969 
                0.00842940968131435 13.5184576711206 0.294874964868053 -146.040429678625 0.00643346080780404 -127.823793503008 0.944936064548693 -72.5764572181381 
                0.921707890448781 -67.1031280964676 0.00643346080780404 -127.823793503008 0.365853190608968 -156.068542680093 0.00879144503584051 43.482907662899  
                0.00647351816996502 -139.492874193969 0.944936064548693 -72.5764572181381 0.00879144503584051 43.482907662899  0.293006254830223 -179.652493944371 
! Gamma         0.766945336865806 317.772722743808 0                0                0                0                0                0                
!               0                0                0.769469796185298 318.048291260398 0                0                0                0                
!               0                0                0                0                0                0                0                0                
!               0                0                0                0                0                0                0                0                
! Port Impedance50               0                0                0                0                0                0                0                
!               0                0                50               0                0                0                0                0                
!               0                0                0                0                50               0                0                0                
!               0                0                0                0                0                0                50               0                

9.3                            0.367524869043575 -159.079877897307 0.00843501927487122 12.6245357949675 0.920665933112898 -67.7422876205277 0.00647665679810202 -140.570275479831 
                0.00843501927487122 12.6245357949675 0.297867956003493 -146.280581623047 0.00644065663678219 -128.709406173758 0.944081529229426 -73.3164871991319 
                0.920665933112898 -67.7422876205277 0.00644065663678219 -128.709406173758 0.368516153795772 -156.969126473003 0.0088699519971176 43.5766979956265 
                0.00647665679810202 -140.570275479831 0.944081529229426 -73.3164871991319 0.00886995199711761 43.5766979956265 0.295698578307963 179.021793530887 
! Gamma         0.774226509255537 321.274249745541 0                0                0                0                0                0                
!               0                0                0.776779984010051 321.552860675975 0                0                0                0                
!               0                0                0                0                0                0                0                0                
!               0                0                0                0                0                0                0                0                
! Port Impedance50               0                0                0                0                0                0                0                
!               0                0                50               0                0                0                0                0                
!               0                0                0                0                50               0                0                0                
!               0                0                0                0                0                0                50               0                

9.4                            0.370459910036466 -159.497369210618 0.00843382991665832 11.6972946136997 0.919697875895865 -68.3789882148736 0.00647765755614125 -141.592296583844 
                0.00843382991665832 11.6972946136997 0.300800566379295 -146.500450834074 0.00644619979153476 -129.539977291567 0.943279388899195 -74.0548605529   
                0.919697875895865 -68.3789882148736 0.00644619979153477 -129.539977291567 0.370999089536859 -157.875166143597 0.00895440052590908 43.640368664189  
                0.00647765755614126 -141.592296583844 0.943279388899196 -74.0548605529   0.00895440052590908 43.640368664189  0.298225443844704 177.681549912556 
! Gamma         0.781502657736183 324.777037437245 0                0                0                0                0                0                
!               0                0                0.784085117112528 325.058690998687 0                0                0                0                
!               0                0                0                0                0                0                0                0                
!               0                0                0                0                0                0                0                0                
! Port Impedance50               0                0                0                0                0                0                0                
!               0                0                50               0                0                0                0                0                
!               0                0                0                0                50               0                0                0                
!               0                0                0                0                0                0                50               0                

9.5                            0.373294820839606 -159.90522824945 0.00842499234049541 10.7351903265435 0.918803380801742 -69.0142238770239 0.00647712306303097 -142.555571009816 
                0.0084249923404954 10.7351903265434 0.303640471555801 -146.705237759453 0.00645072631077888 -130.312403557406 0.942531014862393 -74.7924653430556 
                0.918803380801743 -69.0142238770239 0.00645072631077889 -130.312403557406 0.373298292092369 -158.783074934763 0.00904476510833525 43.6707807655804 
                0.00647712306303097 -142.555571009816 0.942531014862393 -74.7924653430556 0.00904476510833525 43.6707807655804 0.30057821335419 176.33168815185  
! Gamma         0.788773804718786 328.281084838991 0                0                0                0                0                0                
!               0                0                0.791385217468846 328.565781202437 0                0                0                0                
!               0                0                0                0                0                0                0                0                
!               0                0                0                0                0                0                0                0                
! Port Impedance50               0                0                0                0                0                0                0                
!               0                0                50               0                0                0                0                0                
!               0                0                0                0                50               0                0                0                
!               0                0                0                0                0                0                50               0                

9.6                            0.375988444900747 -160.307711101025 0.00840749385098478 9.73770760578086 0.917978056051092 -69.6490280588699 0.00647566529440553 -143.457502193564 
                0.00840749385098477 9.7377076057808  0.306345543896905 -146.899373380661 0.00645489280744925 -131.024236538438 0.941834490638626 -75.5302547744321 
                0.917978056051091 -69.6490280588699 0.00645489280744926 -131.024236538438 0.37541334460953 -159.689352929899 0.00914106174132351 43.6645395918702 
                0.00647566529440554 -143.457502193564 0.941834490638627 -75.5302547744321 0.00914106174132352 43.6645395918702 0.302752022582363 174.977071629313 
! Gamma         0.796039969977716 331.786390773201 0                0                0                0                0                0                
!               0                0                0.798680304430256 332.074130063629 0                0                0                0                
!               0                0                0                0                0                0                0                0                
!               0                0                0                0                0                0                0                0                
! Port Impedance50               0                0                0                0                0                0                0                
!               0                0                50               0                0                0                0                0                
!               0                0                0                0                50               0                0                0                
!               0                0                0                0                0                0                50               0                

9.7                            0.378485242654829 -160.707991249426 0.00838015847492677 8.70580804120421 0.917212891230468 -70.2844317075477 0.00647389247080795 -144.296271971266 
                0.00838015847492676 8.70580804120416 0.308862483376385 -147.085891618076 0.00645936778484389 -131.67372643839 0.941184061496024 -76.2692156040563 
                0.917212891230468 -70.2844317075477 0.00645936778484389 -131.67372643839 0.377346895300221 -160.590626775205 0.00924334725892391 43.6178925262325 
                0.00647389247080795 -144.296271971266 0.941184061496024 -76.2692156040563 0.00924334725892391 43.6178925262325 0.304745622920893 173.622439847359 
! Gamma         0.803301170746971 335.292953872073 0                0                0                0                0                0                
!               0                0                0.805970394819359 335.583736168638 0                0                0                0                
!               0                0                0                0                0                0                0                0                
!               0                0                0                0                0                0                0                0                
! Port Impedance50               0                0                0                0                0                0                0                
!               0                0                50               0                0                0                0                0                
!               0                0                0                0                50               0                0                0                
!               0                0                0                0                0                0                50               0                

9.8                            0.380713643022895 -161.107550797482 0.00834166721816512 7.64242898832855 0.916493769355016 -70.9214137046107 0.00647239857258801 -145.070847039198 
                0.00834166721816512 7.64242898832854 0.311126095717394 -147.265749010477 0.00646482405838067 -132.259872769029 0.940569636493502 -77.010329921627 
                0.916493769355016 -70.9214137046106 0.00646482405838066 -132.259872769029 0.379104404553633 -161.48367858685 0.00935172057033217 43.5266060291851 
                0.00647239857258801 -145.070847039198 0.940569636493502 -77.010329921627 0.00935172057033217 43.5266060291851 0.306561169490446 172.272352109449 
! Gamma         0.810557421799049 338.800772584941 0                0                0                0                0                0                
!               0                0                0.813255503008898 339.094597921195 0                0                0                0                
!               0                0                0                0                0                0                0                0                
!               0                0                0                0                0                0                0                0                
! Port Impedance50               0                0                0                0                0                0                0                
!               0                0                50               0                0                0                0                0                
!               0                0                0                0                50               0                0                0                
!               0                0                0                0                0                0                50               0                

9.9                            0.382585410100388 -161.505518332369 0.00829060331209853 6.55300072969601 0.915801104134181 -71.5608440805431 0.00647175465840559 -145.780993521979 
                0.00829060331209853 6.55300072969606 0.313059529653372 -147.437116364293 0.00647193135483967 -132.782487754677 0.939976383748806 -77.7545304316144 
                0.915801104134183 -71.5608440805431 0.00647193135483968 -132.782487754677 0.380693873311619 -162.365466700054 0.00946632542201903 43.3858084928847 
                0.0064717546584056 -145.780993521979 0.939976383748807 -77.7545304316144 0.00946632542201903 43.3858084928847 0.308203976830871 170.931146174293 
! Gamma         0.817808735506616 342.309845185541 0                0                0                0                0                0                
!               0                0                0.820535640983312 342.606713549694 0                0                0                0                
!               0                0                0                0                0                0                0                0                
!               0                0                0                0                0                0                0                0                
! Port Impedance50               0                0                0                0                0                0                0                
!               0                0                50               0                0                0                0                0                
!               0                0                0                0                50               0                0                0                
!               0                0                0                0                0                0                50               0                

10                             0.383996454437068 -161.897981653023 0.00822552545658299 5.44593541541013 0.915109659672672 -72.2034213264436 0.00647250058704626 -146.427305175178 
                0.00822552545658299 5.44593541541031 0.314575792731812 -147.59467867427 0.0064813476935772 -133.242273506419 0.939384467626469 -78.5026501147147 
                0.915109659672672 -72.2034213264436 0.00648134769357719 -133.242273506419 0.382125556550846 -163.233140826056 0.00958735406920709 43.1897835406102 
                0.00647250058704627 -146.427305175178 0.93938446762647 -78.5026501147147 0.00958735406920709 43.1897835406101 0.309682258352485 169.60290850186  
! Gamma         0.825055121887205 345.820169779192 0                0                0                0                0                0                
!               0                0                0.8278108183833  346.120081114408 0                0                0                0                
!               0                0                0                0                0                0                0                0                
!               0                0                0                0                0                0                0                0                
! Port Impedance50               0                0                0                0                0                0                0                
!               0                0                50               0                0                0                0                0                
!               0                0                0                0                50               0                0                0                
!               0                0                0                0                0                0                50               0                

