! AWR Design Environment (9988) Wed Aug 26 21:58:31 2020
! Document = 'BW_G_2'
! nPorts: 4, nXvals: 324

# GHz S DB R 50
!Freq DBS11 AngS11 DBS12 AngS12 DBS13 AngS13 DBS14 AngS14 
!	DBS21 AngS21 DBS22 AngS22 DBS23 AngS23 DBS24 AngS24 
!	DBS31 AngS31 DBS32 AngS32 DBS33 AngS33 DBS34 AngS34 
!	DBS41 AngS41 DBS42 AngS42 DBS43 AngS43 DBS44 AngS44 
0 -81.192135 0 -0.00075722767 0 -800 0 -800 0 
	-0.00075722767 -0 -81.192135 0 -800 0 -800 0 
	-800 0 -800 0 -81.192135 0 -0.00075722767 0 
	-800 0 -800 0 -0.00075722767 -0 -81.192135 0 
1e-05 -81.192108 0.14451239 -0.0007572277 -1.5063605e-05 -167.40812 89.999975 -169.47026 -90.000031 
	-0.00075722771 -1.5063605e-05 -81.192108 0.14451232 -169.47026 -90.000031 -167.40812 89.999975 
	-167.40812 89.999975 -169.47026 -90.000031 -81.192108 0.14451239 -0.00075722771 -1.5063605e-05 
	-169.47026 -90.000031 -167.40812 89.999975 -0.00075722771 -1.5063605e-05 -81.192108 0.14451232 
0.0001 -81.189353 1.4448171 -0.00075722942 -0.00015063603 -147.40812 89.999751 -149.47026 -90.00031 
	-0.00075722942 -0.00015063603 -81.189353 1.4448164 -149.47026 -90.00031 -147.40812 89.999749 
	-147.40812 89.999751 -149.47026 -90.00031 -81.189353 1.444817 -0.0007572294 -0.00015063603 
	-149.47026 -90.00031 -147.40812 89.999749 -0.0007572294 -0.00015063603 -81.189353 1.4448163 
0.001 -80.922385 14.152682 -0.00075740159 -0.0015063456 -127.40812 89.997515 -129.47026 -90.003104 
	-0.00075740159 -0.0015063456 -80.922385 14.152675 -129.47026 -90.003104 -127.40812 89.997485 
	-127.40812 89.997515 -129.47026 -90.003104 -80.922385 14.152682 -0.00075740161 -0.0015063457 
	-129.47026 -90.003104 -127.40812 89.997485 -0.00075740161 -0.0015063457 -80.922385 14.152675 
0.01 -72.503727 67.900593 -0.00077431991 -0.015049071 -107.40815 89.975173 -109.4703 -90.031006 
	-0.00077431992 -0.015049071 -72.503726 67.900501 -109.4703 -90.031006 -107.40815 89.974879 
	-107.40815 89.975173 -109.4703 -90.031006 -72.503727 67.900593 -0.00077431992 -0.015049071 
	-109.4703 -90.031006 -107.40815 89.974879 -0.00077431992 -0.015049071 -72.503726 67.900501 
0.1 -53.490696 85.393843 -0.0014488757 -0.14550026 -87.409361 89.760634 -89.471824 -90.298745 
	-0.0014488757 -0.14550026 -53.490693 85.392889 -89.471824 -90.298745 -87.409376 89.757746 
	-87.409361 89.760634 -89.471824 -90.298745 -53.490696 85.393843 -0.0014488757 -0.14550026 
	-89.471824 -90.298745 -87.409376 89.757746 -0.0014488757 -0.14550026 -53.490693 85.392889 
0.11 -52.691027 85.598936 -0.0015137905 -0.15965821 -86.581625 89.737397 -88.644116 -90.32773 
	-0.0015137905 -0.15965821 -52.691024 85.597886 -88.644116 -90.32773 -86.581641 89.734225 
	-86.581625 89.737397 -88.644116 -90.32773 -52.691027 85.598936 -0.0015137906 -0.15965821 
	-88.644116 -90.32773 -86.581641 89.734225 -0.0015137906 -0.15965821 -52.691024 85.597886 
0.12 -51.959953 85.776063 -0.0015759923 -0.17379694 -85.825967 89.714194 -87.888485 -90.356672 
	-0.0015759923 -0.17379694 -51.95995 85.774917 -87.888485 -90.356672 -85.825984 89.710738 
	-85.825967 89.714194 -87.888485 -90.356672 -51.959953 85.776063 -0.0015759923 -0.17379694 
	-87.888485 -90.356672 -85.825984 89.710738 -0.0015759923 -0.17379694 -51.95995 85.774917 
0.13 -51.286692 85.932169 -0.0016352381 -0.18791724 -85.130834 89.691025 -87.193375 -90.385573 
	-0.0016352381 -0.18791724 -51.286689 85.930927 -87.193375 -90.385573 -85.130851 89.687284 
	-85.130834 89.691025 -87.193375 -90.385573 -51.286692 85.932169 -0.0016352381 -0.18791724 
	-87.193375 -90.385573 -85.130851 89.687284 -0.0016352381 -0.18791724 -51.286689 85.930927 
0.14 -50.662575 86.069589 -0.001692511 -0.20202396 -84.487245 89.667879 -86.54981 -90.414442 
	-0.001692511 -0.20202396 -50.662572 86.06825 -86.54981 -90.414442 -84.487263 89.663855 
	-84.487245 89.667879 -86.54981 -90.414442 -50.662575 86.069589 -0.001692511 -0.20202396 
	-86.54981 -90.414442 -84.487263 89.663855 -0.001692511 -0.20202396 -50.662572 86.06825 
0.15 -50.080877 86.191368 -0.0017481243 -0.21611882 -83.888083 89.644755 -85.95067 -90.443285 
	-0.0017481243 -0.21611882 -50.080874 86.189933 -85.95067 -90.443285 -83.888101 89.640447 
	-83.888083 89.644755 -85.95067 -90.443285 -50.080877 86.191368 -0.0017481243 -0.21611882 
	-85.95067 -90.443285 -83.888101 89.640447 -0.0017481243 -0.21611882 -50.080874 86.189933 
0.16 -49.536175 86.299892 -0.0018023403 -0.23020309 -83.327609 89.621649 -85.390216 -90.472104 
	-0.0018023403 -0.23020309 -49.536172 86.298361 -85.390216 -90.472104 -83.327627 89.617058 
	-83.327609 89.621649 -85.390216 -90.472104 -49.536175 86.299892 -0.0018023403 -0.23020309 
	-85.390216 -90.472104 -83.327627 89.617058 -0.0018023403 -0.23020309 -49.536172 86.298361 
0.17 -49.024031 86.397081 -0.0018553712 -0.2442777 -82.801128 89.598561 -84.863756 -90.500901 
	-0.0018553712 -0.2442777 -49.024027 86.395453 -84.863756 -90.500901 -82.801147 89.593687 
	-82.801128 89.598561 -84.863756 -90.500901 -49.024031 86.397081 -0.0018553712 -0.2442777 
	-84.863756 -90.500901 -82.801147 89.593687 -0.0018553712 -0.2442777 -49.024027 86.395453 
0.18 -48.540763 86.484504 -0.0019073863 -0.25834343 -82.304753 89.575489 -84.3674 -90.529678 
	-0.0019073863 -0.25834343 -48.540759 86.48278 -84.3674 -90.529678 -82.304773 89.570331 
	-82.304753 89.575489 -84.3674 -90.529678 -48.540763 86.484504 -0.0019073863 -0.25834343 
	-84.3674 -90.529678 -82.304773 89.570331 -0.0019073863 -0.25834343 -48.540759 86.48278 
0.19 -48.083284 86.56346 -0.0019585215 -0.27240089 -81.835227 89.552432 -83.897892 -90.558436 
	-0.0019585215 -0.27240089 -48.08328 86.561639 -83.897892 -90.558436 -81.835246 89.54699 
	-81.835227 89.552432 -83.897892 -90.558436 -48.083284 86.56346 -0.0019585215 -0.27240089 
	-83.897892 -90.558436 -81.835246 89.54699 -0.0019585215 -0.27240089 -48.08328 86.561639 
0.2 -47.648976 86.63503 -0.0020088865 -0.28645063 -81.389793 89.529388 -83.452476 -90.587176 
	-0.0020088865 -0.28645063 -47.648973 86.633113 -83.452476 -90.587176 -81.389813 89.523663 
	-81.389793 89.529388 -83.452476 -90.587176 -47.648976 86.63503 -0.0020088865 -0.28645063 
	-83.452476 -90.587176 -81.389813 89.523663 -0.0020088865 -0.28645063 -47.648973 86.633113 
0.21 -47.235603 86.700124 -0.0020585713 -0.30049312 -80.9661 89.506357 -83.0288 -90.615901 
	-0.0020585713 -0.30049312 -47.235599 86.69811 -83.0288 -90.615901 -80.96612 89.50035 
	-80.9661 89.506357 -83.0288 -90.615901 -47.235603 86.700124 -0.0020585713 -0.30049312 
	-83.0288 -90.615901 -80.96612 89.50035 -0.0020585713 -0.30049312 -47.235599 86.69811 
0.22 -46.841235 86.759506 -0.0021076508 -0.3145288 -80.562125 89.483339 -82.624841 -90.644609 
	-0.0021076508 -0.3145288 -46.841231 86.757396 -82.624841 -90.644609 -80.562145 89.477048 
	-80.562125 89.483339 -82.624841 -90.644609 -46.841235 86.759506 -0.0021076508 -0.3145288 
	-82.624841 -90.644609 -80.562145 89.477048 -0.0021076508 -0.3145288 -46.841231 86.757396 
0.23 -46.4642 86.813826 -0.0021561888 -0.32855807 -80.176113 89.460332 -82.238846 -90.673304 
	-0.0021561888 -0.32855807 -46.464196 86.81162 -82.238846 -90.673304 -80.176134 89.453758 
	-80.176113 89.460332 -82.238846 -90.673304 -46.4642 86.813826 -0.0021561887 -0.32855807 
	-82.238846 -90.673304 -80.176134 89.453758 -0.0021561887 -0.32855807 -46.464196 86.81162 
0.24 -46.103035 86.863639 -0.0022042403 -0.34258129 -79.806536 89.437336 -81.869284 -90.701984 
	-0.0022042403 -0.34258129 -46.103031 86.861335 -81.869284 -90.701984 -79.806557 89.430479 
	-79.806536 89.437336 -81.869284 -90.701984 -46.103035 86.863639 -0.0022042404 -0.34258129 
	-81.869284 -90.701984 -79.806557 89.430479 -0.0022042404 -0.34258129 -46.103031 86.861335 
0.25 -45.756455 86.909417 -0.0022518541 -0.35659881 -79.452051 89.41435 -81.514814 -90.730652 
	-0.0022518541 -0.35659881 -45.756451 86.907017 -81.514814 -90.730652 -79.452072 89.407211 
	-79.452051 89.41435 -81.514814 -90.730652 -45.756455 86.909417 -0.0022518541 -0.35659881 
	-81.514814 -90.730652 -79.452072 89.407211 -0.0022518541 -0.35659881 -45.756451 86.907017 
0.26 -45.423327 86.95157 -0.0022990732 -0.37061093 -79.111474 89.391374 -81.174251 -90.759308 
	-0.0022990732 -0.37061093 -45.423322 86.949074 -81.174251 -90.759308 -79.111495 89.383952 
	-79.111474 89.391374 -81.174251 -90.759308 -45.423327 86.95157 -0.0022990732 -0.37061093 
	-81.174251 -90.759308 -79.111495 89.383952 -0.0022990732 -0.37061093 -45.423322 86.949074 
0.27 -45.102642 86.990452 -0.0023459369 -0.38461796 -78.783755 89.368407 -80.846546 -90.787952 
	-0.0023459369 -0.38461796 -45.102637 86.987859 -80.846546 -90.787952 -78.783777 89.360702 
	-78.783755 89.368407 -80.846546 -90.787952 -45.102642 86.990452 -0.0023459368 -0.38461796 
	-80.846546 -90.787952 -78.783777 89.360702 -0.0023459368 -0.38461796 -45.102637 86.987859 
0.28 -44.793502 87.026368 -0.0023924806 -0.39862016 -78.467959 89.345448 -80.530763 -90.816585 
	-0.0023924806 -0.39862016 -44.793497 87.023679 -80.530763 -90.816585 -78.467981 89.337461 
	-78.467959 89.345448 -80.530763 -90.816585 -44.793502 87.026368 -0.0023924806 -0.39862016 
	-80.530763 -90.816585 -78.467981 89.337461 -0.0023924806 -0.39862016 -44.793497 87.023679 
0.29 -44.495103 87.059588 -0.0024387372 -0.41261779 -78.163249 89.322498 -80.226065 -90.845208 
	-0.0024387372 -0.41261779 -44.495098 87.056802 -80.226065 -90.845208 -78.16327 89.314228 
	-78.163249 89.322498 -80.226065 -90.845208 -44.495103 87.059588 -0.0024387372 -0.41261779 
	-80.226065 -90.845208 -78.16327 89.314228 -0.0024387372 -0.41261779 -44.495098 87.056802 
0.3 -44.206722 87.090347 -0.0024847369 -0.42661107 -77.868872 89.299556 -79.931701 -90.873821 
	-0.0024847369 -0.42661107 -44.206717 87.087465 -79.931701 -90.873821 -77.868894 89.291003 
	-77.868872 89.299556 -79.931701 -90.873821 -44.206722 87.090347 -0.0024847369 -0.42661107 
	-79.931701 -90.873821 -77.868894 89.291003 -0.0024847369 -0.42661107 -44.206717 87.087465 
0.31 -43.927706 87.118852 -0.0025305078 -0.44060023 -77.584152 89.276621 -79.646992 -90.902424 
	-0.0025305078 -0.44060023 -43.927701 87.115873 -79.646992 -90.902424 -77.584174 89.267785 
	-77.584152 89.276621 -79.646992 -90.902424 -43.927706 87.118852 -0.0025305078 -0.44060023 
	-79.646992 -90.902424 -77.584174 89.267785 -0.0025305078 -0.44060023 -43.927701 87.115873 
0.32 -43.657465 87.145288 -0.0025760759 -0.45458546 -77.308474 89.253693 -79.371326 -90.931019 
	-0.0025760759 -0.45458546 -43.65746 87.142212 -79.371326 -90.931019 -77.308496 89.244575 
	-77.308474 89.253693 -79.371326 -90.931019 -43.657465 87.145288 -0.0025760759 -0.45458546 
	-79.371326 -90.931019 -77.308496 89.244575 -0.0025760759 -0.45458546 -43.65746 87.142212 
0.33 -43.395462 87.169816 -0.0026214656 -0.46856695 -77.041283 89.230771 -79.104146 -90.959606 
	-0.0026214656 -0.46856695 -43.395457 87.166644 -79.104146 -90.959606 -77.041305 89.221371 
	-77.041283 89.230771 -79.104146 -90.959606 -43.395462 87.169816 -0.0026214656 -0.46856695 
	-79.104146 -90.959606 -77.041305 89.221371 -0.0026214656 -0.46856695 -43.395457 87.166644 
0.34 -43.141209 87.192584 -0.0026666996 -0.48254486 -76.782071 89.207857 -78.844945 -90.988184 
	-0.0026666996 -0.48254486 -43.141204 87.189315 -78.844945 -90.988184 -76.782094 89.198174 
	-76.782071 89.207857 -78.844945 -90.988184 -43.141209 87.192584 -0.0026666996 -0.48254486 
	-78.844945 -90.988184 -76.782094 89.198174 -0.0026666996 -0.48254486 -43.141204 87.189315 
0.35 -42.894259 87.213721 -0.0027117991 -0.49651936 -76.530377 89.184948 -78.593261 -91.016754 
	-0.0027117991 -0.49651936 -42.894254 87.210356 -78.593261 -91.016754 -76.530399 89.174982 
	-76.530377 89.184948 -78.593261 -91.016754 -42.894259 87.213721 -0.0027117991 -0.49651936 
	-78.593261 -91.016754 -76.530399 89.174982 -0.0027117991 -0.49651936 -42.894254 87.210356 
0.36 -42.654203 87.233345 -0.0027567841 -0.51049059 -76.285776 89.162045 -78.34867 -91.045318 
	-0.0027567841 -0.51049059 -42.654198 87.229883 -78.34867 -91.045318 -76.285798 89.151797 
	-76.285776 89.162045 -78.34867 -91.045318 -42.654203 87.233345 -0.0027567841 -0.51049059 
	-78.34867 -91.045318 -76.285798 89.151797 -0.0027567841 -0.51049059 -42.654198 87.229883 
0.37 -42.420667 87.251561 -0.0028016731 -0.52445869 -76.047879 89.139148 -78.110783 -91.073874 
	-0.0028016731 -0.52445869 -42.420662 87.248002 -78.110783 -91.073874 -76.047902 89.128618 
	-76.047879 89.139148 -78.110783 -91.073874 -42.420667 87.251561 -0.0028016731 -0.52445869 
	-78.110783 -91.073874 -76.047902 89.128618 -0.0028016731 -0.52445869 -42.420662 87.248002 
0.38 -42.193304 87.268465 -0.0028464837 -0.53842378 -75.81633 89.116256 -77.879243 -91.102423 
	-0.0028464837 -0.53842378 -42.193299 87.264809 -77.879243 -91.102423 -75.816353 89.105444 
	-75.81633 89.116256 -77.879243 -91.102423 -42.193304 87.268465 -0.0028464837 -0.53842378 
	-77.879243 -91.102423 -75.816353 89.105444 -0.0028464837 -0.53842378 -42.193299 87.264809 
0.39 -41.971796 87.284143 -0.0028912322 -0.55238598 -75.590798 89.093369 -77.65372 -91.130966 
	-0.0028912322 -0.55238598 -41.971791 87.280391 -77.65372 -91.130966 -75.590821 89.082275 
	-75.590798 89.093369 -77.65372 -91.130966 -41.971796 87.284143 -0.0028912322 -0.55238598 
	-77.65372 -91.130966 -75.590821 89.082275 -0.0028912322 -0.55238598 -41.971791 87.280391 
0.4 -41.755848 87.298675 -0.0029359341 -0.5663454 -75.370979 89.070488 -77.433909 -91.159502 
	-0.0029359341 -0.5663454 -41.755843 87.294827 -77.433909 -91.159502 -75.371001 89.059111 
	-75.370979 89.070488 -77.433909 -91.159502 -41.755848 87.298675 -0.0029359341 -0.5663454 
	-77.433909 -91.159502 -75.371001 89.059111 -0.0029359341 -0.5663454 -41.755843 87.294827 
0.41 -41.545188 87.312133 -0.0029806038 -0.58030215 -75.15659 89.047611 -77.219528 -91.188033 
	-0.0029806038 -0.58030215 -41.545182 87.308188 -77.219528 -91.188033 -75.156613 89.035952 
	-75.15659 89.047611 -77.219528 -91.188033 -41.545188 87.312133 -0.0029806038 -0.58030215 
	-77.219528 -91.188033 -75.156613 89.035952 -0.0029806038 -0.58030215 -41.545182 87.308188 
0.42 -41.339562 87.324582 -0.003025255 -0.59425631 -74.94737 89.024739 -77.010316 -91.216558 
	-0.003025255 -0.59425631 -41.339556 87.320541 -77.010316 -91.216558 -74.947393 89.012797 
	-74.94737 89.024739 -77.010316 -91.216558 -41.339562 87.324582 -0.003025255 -0.59425631 
	-77.010316 -91.216558 -74.947393 89.012797 -0.003025255 -0.59425631 -41.339556 87.320541 
0.43 -41.138734 87.336083 -0.0030699004 -0.60820798 -74.743076 89.001871 -76.806029 -91.245077 
	-0.0030699004 -0.60820798 -41.138729 87.331945 -76.806029 -91.245077 -74.743098 88.989648 
	-74.743076 89.001871 -76.806029 -91.245077 -41.138734 87.336083 -0.0030699004 -0.60820798 
	-76.806029 -91.245077 -74.743098 88.989648 -0.0030699004 -0.60820798 -41.138729 87.331945 
0.44 -40.942486 87.346691 -0.0031145523 -0.62215724 -74.543481 88.979008 -76.606441 -91.27359 
	-0.0031145523 -0.62215724 -40.94248 87.342456 -76.606441 -91.27359 -74.543503 88.966502 
	-74.543481 88.979008 -76.606441 -91.27359 -40.942486 87.346691 -0.0031145523 -0.62215724 
	-76.606441 -91.27359 -74.543503 88.966502 -0.0031145523 -0.62215724 -40.94248 87.342456 
0.45 -40.750612 87.356457 -0.0031592219 -0.63610418 -74.348373 88.956149 -76.41134 -91.302099 
	-0.0031592219 -0.63610418 -40.750607 87.352126 -76.41134 -91.302099 -74.348395 88.943361 
	-74.348373 88.956149 -76.41134 -91.302099 -40.750612 87.356458 -0.0031592219 -0.63610418 
	-76.41134 -91.302099 -74.348395 88.943361 -0.0031592219 -0.63610418 -40.750607 87.352126 
0.46 -40.562923 87.365429 -0.0032039201 -0.65004886 -74.157557 88.933294 -76.22053 -91.330602 
	-0.0032039201 -0.65004886 -40.562917 87.361 -76.22053 -91.330602 -74.157579 88.920224 
	-74.157557 88.933294 -76.22053 -91.330602 -40.562923 87.365429 -0.0032039201 -0.65004886 
	-76.22053 -91.330602 -74.157579 88.920224 -0.0032039201 -0.65004886 -40.562917 87.361 
0.47 -40.379238 87.373648 -0.0032486571 -0.66399135 -73.970846 88.910443 -76.033826 -91.3591 
	-0.0032486571 -0.66399135 -40.379232 87.369123 -76.033826 -91.3591 -73.970868 88.89709 
	-73.970846 88.910443 -76.033826 -91.3591 -40.379238 87.373648 -0.0032486571 -0.66399135 
	-76.033826 -91.3591 -73.970868 88.89709 -0.0032486571 -0.66399135 -40.379232 87.369123 
0.48 -40.19939 87.381157 -0.0032934424 -0.67793173 -73.788069 88.887595 -75.851054 -91.387594 
	-0.0032934424 -0.67793173 -40.199384 87.376535 -75.851054 -91.387594 -73.788091 88.873961 
	-73.788069 88.887595 -75.851054 -91.387594 -40.19939 87.381157 -0.0032934424 -0.67793173 
	-75.851054 -91.387594 -73.788091 88.873961 -0.0032934424 -0.67793173 -40.199384 87.376535 
0.49 -40.023222 87.387991 -0.0033382853 -0.69187006 -73.609062 88.864752 -75.672054 -91.416083 
	-0.0033382853 -0.69187006 -40.023216 87.383273 -75.672054 -91.416083 -73.609084 88.850835 
	-73.609062 88.864752 -75.672054 -91.416083 -40.023222 87.387991 -0.0033382853 -0.69187006 
	-75.672054 -91.416083 -73.609084 88.850835 -0.0033382853 -0.69187006 -40.023216 87.383273 
0.5 -39.850586 87.394186 -0.0033831945 -0.70580639 -73.433675 88.841912 -75.496671 -91.444568 
	-0.0033831945 -0.70580639 -39.85058 87.389371 -75.496671 -91.444568 -73.433696 88.827713 
	-73.433675 88.841912 -75.496671 -91.444568 -39.850586 87.394186 -0.0033831944 -0.70580639 
	-75.496671 -91.444568 -73.433696 88.827713 -0.0033831944 -0.70580639 -39.85058 87.389371 
0.505 -39.765549 87.397054 -0.0034056764 -0.71277382 -73.347293 88.830493 -75.410292 -91.458808 
	-0.0034056764 -0.71277382 -39.765543 87.392191 -75.410292 -91.458808 -73.347314 88.816154 
	-73.347293 88.830493 -75.410292 -91.458808 -39.765549 87.397054 -0.0034056764 -0.71277382 
	-75.410292 -91.458808 -73.347314 88.816154 -0.0034056764 -0.71277382 -39.765543 87.392191 
0.51 -39.681343 87.399774 -0.003428178 -0.71974078 -73.261763 88.819075 -75.324764 -91.473048 
	-0.003428178 -0.71974078 -39.681337 87.394862 -75.324764 -91.473048 -73.261784 88.804595 
	-73.261763 88.819075 -75.324764 -91.473048 -39.681343 87.399774 -0.003428178 -0.71974078 
	-75.324764 -91.473048 -73.261784 88.804595 -0.003428178 -0.71974078 -39.681337 87.394862 
0.515 -39.597953 87.402349 -0.0034507002 -0.72670727 -73.177067 88.807658 -75.240071 -91.487286 
	-0.0034507002 -0.72670727 -39.597947 87.397389 -75.240071 -91.487286 -73.177089 88.793037 
	-73.177067 88.807658 -75.240071 -91.487286 -39.597953 87.402349 -0.0034507002 -0.72670727 
	-75.240071 -91.487286 -73.177089 88.793037 -0.0034507002 -0.72670727 -39.597947 87.397389 
0.52 -39.515362 87.404784 -0.0034732439 -0.73367329 -73.093191 88.796242 -75.156197 -91.501524 
	-0.0034732439 -0.73367329 -39.515356 87.399776 -75.156197 -91.501524 -73.093212 88.78148 
	-73.093191 88.796242 -75.156197 -91.501524 -39.515362 87.404784 -0.0034732439 -0.73367329 
	-75.156197 -91.501524 -73.093212 88.78148 -0.0034732439 -0.73367329 -39.515356 87.399776 
0.525 -39.433556 87.407082 -0.00349581 -0.74063885 -73.010118 88.784827 -75.073126 -91.51576 
	-0.00349581 -0.74063885 -39.43355 87.402025 -75.073126 -91.51576 -73.010139 88.769924 
	-73.010118 88.784827 -75.073126 -91.51576 -39.433556 87.407082 -0.00349581 -0.74063885 
	-75.073126 -91.51576 -73.010139 88.769924 -0.00349581 -0.74063885 -39.43355 87.402025 
0.53 -39.352519 87.409245 -0.0035183994 -0.74760396 -72.927832 88.773412 -74.990843 -91.529996 
	-0.0035183994 -0.74760396 -39.352513 87.40414 -74.990843 -91.529996 -72.927854 88.758368 
	-72.927832 88.773412 -74.990843 -91.529996 -39.352519 87.409245 -0.0035183994 -0.74760396 
	-74.990843 -91.529996 -72.927854 88.758368 -0.0035183994 -0.74760396 -39.352513 87.40414 
0.535 -39.272238 87.411278 -0.0035410131 -0.75456863 -72.84632 88.761999 -74.909333 -91.54423 
	-0.0035410131 -0.75456863 -39.272232 87.406125 -74.909333 -91.54423 -72.846341 88.746814 
	-72.84632 88.761999 -74.909333 -91.54423 -39.272238 87.411278 -0.0035410131 -0.75456863 
	-74.909333 -91.54423 -72.846341 88.746814 -0.0035410131 -0.75456863 -39.272232 87.406125 
0.54 -39.192698 87.413183 -0.0035636518 -0.76153285 -72.765567 88.750586 -74.828582 -91.558463 
	-0.0035636518 -0.76153285 -39.192692 87.407981 -74.828582 -91.558463 -72.765588 88.73526 
	-72.765567 88.750586 -74.828582 -91.558463 -39.192698 87.413183 -0.0035636518 -0.76153285 
	-74.828582 -91.558463 -72.765588 88.73526 -0.0035636518 -0.76153285 -39.192692 87.407981 
0.545 -39.113886 87.414964 -0.0035863164 -0.76849664 -72.685559 88.739174 -74.748575 -91.572696 
	-0.0035863164 -0.76849664 -39.11388 87.409713 -74.748575 -91.572696 -72.685579 88.723707 
	-72.685559 88.739174 -74.748575 -91.572696 -39.113886 87.414964 -0.0035863164 -0.76849664 
	-74.748575 -91.572696 -72.685579 88.723707 -0.0035863164 -0.76849664 -39.11388 87.409714 
0.55 -39.035789 87.416622 -0.0036090077 -0.77546 -72.606281 88.727762 -74.6693 -91.586927 
	-0.0036090077 -0.77546 -39.035783 87.411324 -74.6693 -91.586927 -72.606302 88.712154 
	-72.606281 88.727762 -74.6693 -91.586927 -39.035789 87.416622 -0.0036090078 -0.77546 
	-74.6693 -91.586927 -72.606302 88.712154 -0.0036090078 -0.77546 -39.035783 87.411324 
0.555 -38.958393 87.418162 -0.0036317266 -0.78242294 -72.527722 88.716352 -74.590742 -91.601158 
	-0.0036317266 -0.78242294 -38.958387 87.412815 -74.590742 -91.601158 -72.527743 88.700603 
	-72.527722 88.716352 -74.590742 -91.601158 -38.958393 87.418162 -0.0036317266 -0.78242294 
	-74.590742 -91.601158 -72.527743 88.700603 -0.0036317266 -0.78242294 -38.958387 87.412815 
0.56 -38.881687 87.419585 -0.0036544737 -0.78938546 -72.449868 88.704942 -74.51289 -91.615387 
	-0.0036544737 -0.78938546 -38.881681 87.41419 -74.51289 -91.615387 -72.449888 88.689052 
	-72.449868 88.704942 -74.51289 -91.615387 -38.881687 87.419585 -0.0036544737 -0.78938546 
	-74.51289 -91.615387 -72.449888 88.689052 -0.0036544737 -0.78938546 -38.881681 87.41419 
0.565 -38.805657 87.420895 -0.0036772499 -0.79634757 -72.372706 88.693533 -74.43573 -91.629616 
	-0.0036772499 -0.79634757 -38.805651 87.415451 -74.43573 -91.629616 -72.372726 88.677502 
	-72.372706 88.693533 -74.43573 -91.629616 -38.805657 87.420895 -0.0036772499 -0.79634757 
	-74.43573 -91.629616 -72.372726 88.677502 -0.0036772499 -0.79634757 -38.805651 87.415452 
0.57 -38.730293 87.422094 -0.0037000559 -0.80330926 -72.296225 88.682125 -74.35925 -91.643844 
	-0.0037000559 -0.80330926 -38.730287 87.416602 -74.35925 -91.643844 -72.296245 88.665953 
	-72.296225 88.682125 -74.35925 -91.643844 -38.730293 87.422094 -0.0037000559 -0.80330926 
	-74.35925 -91.643844 -72.296245 88.665953 -0.0037000559 -0.80330926 -38.730287 87.416602 
0.575 -38.655582 87.423184 -0.0037228924 -0.81027056 -72.220412 88.670717 -74.283439 -91.658071 
	-0.0037228924 -0.81027056 -38.655576 87.417644 -74.283439 -91.658071 -72.220432 88.654404 
	-72.220412 88.670717 -74.283439 -91.658071 -38.655582 87.423184 -0.0037228924 -0.81027056 
	-74.283439 -91.658071 -72.220432 88.654404 -0.0037228924 -0.81027056 -38.655576 87.417644 
0.58 -38.581514 87.424168 -0.0037457601 -0.81723145 -72.145256 88.65931 -74.208285 -91.672296 
	-0.0037457601 -0.81723145 -38.581507 87.418579 -74.208285 -91.672296 -72.145276 88.642857 
	-72.145256 88.65931 -74.208285 -91.672296 -38.581514 87.424168 -0.0037457601 -0.81723145 
	-74.208285 -91.672296 -72.145276 88.642857 -0.0037457601 -0.81723145 -38.581507 87.418579 
0.585 -38.508076 87.425048 -0.0037686597 -0.82419196 -72.070746 88.647904 -74.133776 -91.686521 
	-0.0037686597 -0.82419196 -38.50807 87.419411 -74.133776 -91.686521 -72.070766 88.631309 
	-72.070746 88.647904 -74.133776 -91.686521 -38.508076 87.425048 -0.0037686597 -0.82419196 
	-74.133776 -91.686521 -72.070766 88.631309 -0.0037686597 -0.82419196 -38.50807 87.419411 
0.59 -38.43526 87.425826 -0.003791592 -0.83115207 -71.99687 88.636499 -74.059902 -91.700746 
	-0.003791592 -0.83115207 -38.435254 87.420141 -74.059902 -91.700746 -71.99689 88.619763 
	-71.99687 88.636499 -74.059902 -91.700746 -38.43526 87.425826 -0.003791592 -0.83115207 
	-74.059902 -91.700746 -71.99689 88.619763 -0.003791592 -0.83115207 -38.435254 87.420141 
0.595 -38.363054 87.426505 -0.0038145576 -0.8381118 -71.923618 88.625094 -73.986651 -91.714969 
	-0.0038145576 -0.8381118 -38.363047 87.420771 -73.986651 -91.714969 -71.923638 88.608217 
	-71.923618 88.625094 -73.986651 -91.714969 -38.363054 87.426505 -0.0038145576 -0.8381118 
	-73.986651 -91.714969 -71.923638 88.608217 -0.0038145576 -0.8381118 -38.363047 87.420771 
0.6 -38.291448 87.427087 -0.003837557 -0.84507115 -71.85098 88.61369 -73.914014 -91.729191 
	-0.003837557 -0.84507115 -38.291441 87.421305 -73.914014 -91.729191 -71.851 88.596672 
	-71.85098 88.61369 -73.914014 -91.729191 -38.291448 87.427087 -0.003837557 -0.84507115 
	-73.914014 -91.729191 -71.851 88.596672 -0.003837557 -0.84507115 -38.291441 87.421305 
0.605 -38.220432 87.427573 -0.0038605911 -0.85203012 -71.778945 88.602287 -73.841981 -91.743413 
	-0.0038605911 -0.85203012 -38.220425 87.421742 -73.841981 -91.743413 -71.778965 88.585128 
	-71.778945 88.602287 -73.841981 -91.743413 -38.220432 87.427573 -0.0038605911 -0.85203012 
	-73.841981 -91.743413 -71.778965 88.585128 -0.0038605911 -0.85203012 -38.220425 87.421742 
0.61 -38.149997 87.427966 -0.0038836603 -0.85898873 -71.707504 88.590884 -73.77054 -91.757634 
	-0.0038836603 -0.85898873 -38.14999 87.422087 -73.77054 -91.757634 -71.707523 88.573585 
	-71.707504 88.590884 -73.77054 -91.757634 -38.149997 87.427966 -0.0038836603 -0.85898873 
	-73.77054 -91.757634 -71.707523 88.573585 -0.0038836603 -0.85898873 -38.14999 87.422087 
0.615 -38.080132 87.428268 -0.0039067654 -0.86594696 -71.636646 88.579482 -73.699684 -91.771854 
	-0.0039067654 -0.86594696 -38.080126 87.422341 -73.699684 -91.771854 -71.636665 88.562042 
	-71.636646 88.579482 -73.699684 -91.771854 -38.080132 87.428268 -0.0039067654 -0.86594696 
	-73.699684 -91.771854 -71.636665 88.562042 -0.0039067654 -0.86594696 -38.080126 87.422341 
0.62 -38.01083 87.42848 -0.0039299068 -0.87290483 -71.566363 88.568081 -73.629401 -91.786073 
	-0.0039299068 -0.87290483 -38.010823 87.422504 -73.629401 -91.786073 -71.566382 88.550499 
	-71.566363 88.568081 -73.629401 -91.786073 -38.01083 87.42848 -0.0039299068 -0.87290483 
	-73.629401 -91.786073 -71.566382 88.550499 -0.0039299068 -0.87290483 -38.010823 87.422504 
0.625 -37.942081 87.428605 -0.0039530853 -0.87986235 -71.496644 88.55668 -73.559684 -91.800291 
	-0.0039530853 -0.87986235 -37.942074 87.422581 -73.559684 -91.800291 -71.496663 88.538958 
	-71.496644 88.55668 -73.559684 -91.800291 -37.942081 87.428605 -0.0039530853 -0.87986235 
	-73.559684 -91.800291 -71.496663 88.538958 -0.0039530853 -0.87986235 -37.942074 87.422581 
0.63 -37.873875 87.428644 -0.0039763013 -0.88681951 -71.427482 88.54528 -73.490522 -91.814509 
	-0.0039763013 -0.88681951 -37.873869 87.422571 -73.490522 -91.814509 -71.427501 88.527417 
	-71.427482 88.54528 -73.490522 -91.814509 -37.873875 87.428644 -0.0039763013 -0.88681951 
	-73.490522 -91.814509 -71.427501 88.527417 -0.0039763013 -0.88681951 -37.873869 87.422571 
0.635 -37.806206 87.428598 -0.0039995555 -0.89377631 -71.358867 88.53388 -73.421908 -91.828725 
	-0.0039995555 -0.89377631 -37.806199 87.422477 -73.421908 -91.828725 -71.358885 88.515876 
	-71.358867 88.53388 -73.421908 -91.828725 -37.806206 87.428598 -0.0039995555 -0.89377631 
	-73.421908 -91.828725 -71.358885 88.515876 -0.0039995555 -0.89377631 -37.806199 87.422477 
0.64 -37.739064 87.42847 -0.0040228484 -0.90073277 -71.29079 88.522482 -73.353832 -91.842941 
	-0.0040228484 -0.90073277 -37.739057 87.422301 -73.353832 -91.842941 -71.290809 88.504337 
	-71.29079 88.522482 -73.353832 -91.842941 -37.739064 87.42847 -0.0040228484 -0.90073277 
	-73.353832 -91.842941 -71.290809 88.504337 -0.0040228484 -0.90073277 -37.739057 87.422301 
0.645 -37.67244 87.428262 -0.0040461805 -0.90768889 -71.223244 88.511083 -73.286286 -91.857157 
	-0.0040461805 -0.90768889 -37.672434 87.422044 -73.286286 -91.857157 -71.223262 88.492798 
	-71.223244 88.511083 -73.286286 -91.857157 -37.67244 87.428262 -0.0040461805 -0.90768889 
	-73.286286 -91.857157 -71.223262 88.492798 -0.0040461805 -0.90768889 -37.672434 87.422044 
0.65 -37.606328 87.427974 -0.0040695523 -0.91464466 -71.15622 88.499686 -73.219263 -91.871371 
	-0.0040695523 -0.91464466 -37.606321 87.421708 -73.219263 -91.871371 -71.156238 88.481259 
	-71.15622 88.499686 -73.219263 -91.871371 -37.606328 87.427974 -0.0040695524 -0.91464466 
	-73.219263 -91.871371 -71.156238 88.481259 -0.0040695524 -0.91464466 -37.606321 87.421708 
0.655 -37.540719 87.427609 -0.0040929645 -0.9216001 -71.08971 88.488289 -73.152753 -91.885585 
	-0.0040929645 -0.9216001 -37.540713 87.421295 -73.152753 -91.885585 -71.089728 88.469721 
	-71.08971 88.488289 -73.152753 -91.885585 -37.540719 87.427609 -0.0040929645 -0.9216001 
	-73.152753 -91.885585 -71.089728 88.469721 -0.0040929645 -0.9216001 -37.540713 87.421295 
0.66 -37.475606 87.427167 -0.0041164175 -0.9285552 -71.023706 88.476892 -73.08675 -91.899798 
	-0.0041164175 -0.9285552 -37.4756 87.420805 -73.08675 -91.899798 -71.023724 88.458184 
	-71.023706 88.476892 -73.08675 -91.899798 -37.475606 87.427167 -0.0041164175 -0.9285552 
	-73.08675 -91.899798 -71.023724 88.458184 -0.0041164175 -0.9285552 -37.4756 87.420805 
0.665 -37.410981 87.426651 -0.0041399117 -0.93550998 -70.958201 88.465497 -73.021246 -91.91401 
	-0.0041399117 -0.93550998 -37.410975 87.42024 -73.021246 -91.91401 -70.958219 88.446647 
	-70.958201 88.465497 -73.021246 -91.91401 -37.410981 87.426651 -0.0041399117 -0.93550998 
	-73.021246 -91.91401 -70.958219 88.446647 -0.0041399117 -0.93550998 -37.410975 87.42024 
0.67 -37.346838 87.426061 -0.0041634478 -0.94246443 -70.893187 88.454102 -72.956232 -91.928221 
	-0.0041634478 -0.94246443 -37.346831 87.419602 -72.956232 -91.928221 -70.893205 88.435111 
	-70.893187 88.454102 -72.956232 -91.928221 -37.346838 87.426061 -0.0041634478 -0.94246443 
	-72.956232 -91.928221 -70.893205 88.435111 -0.0041634478 -0.94246443 -37.346831 87.419602 
0.675 -37.283168 87.4254 -0.0041870262 -0.94941855 -70.828657 88.442707 -72.891702 -91.942432 
	-0.0041870262 -0.94941855 -37.283161 87.418892 -72.891702 -91.942432 -70.828675 88.423576 
	-70.828657 88.442707 -72.891702 -91.942432 -37.283168 87.4254 -0.0041870262 -0.94941855 
	-72.891702 -91.942432 -70.828675 88.423576 -0.0041870262 -0.94941855 -37.283161 87.418892 
0.68 -37.219965 87.424668 -0.0042106473 -0.95637236 -70.764604 88.431313 -72.827649 -91.956642 
	-0.0042106473 -0.95637236 -37.219958 87.418112 -72.827649 -91.956642 -70.764621 88.412041 
	-70.764604 88.431313 -72.827649 -91.956642 -37.219965 87.424668 -0.0042106473 -0.95637236 
	-72.827649 -91.956642 -70.764621 88.412041 -0.0042106473 -0.95637236 -37.219958 87.418112 
0.685 -37.157222 87.423867 -0.0042343116 -0.96332584 -70.70102 88.41992 -72.764066 -91.970851 
	-0.0042343116 -0.96332584 -37.157215 87.417262 -72.764066 -91.970851 -70.701037 88.400507 
	-70.70102 88.41992 -72.764066 -91.970851 -37.157222 87.423867 -0.0042343116 -0.96332584 
	-72.764066 -91.970851 -70.701037 88.400507 -0.0042343116 -0.96332584 -37.157215 87.417262 
0.69 -37.094932 87.422998 -0.0042580196 -0.97027902 -70.6379 88.408527 -72.700945 -91.98506 
	-0.0042580196 -0.97027902 -37.094925 87.416345 -72.700945 -91.98506 -70.637917 88.388973 
	-70.6379 88.408527 -72.700945 -91.98506 -37.094932 87.422998 -0.0042580196 -0.97027902 
	-72.700945 -91.98506 -70.637917 88.388973 -0.0042580196 -0.97027902 -37.094925 87.416345 
0.695 -37.03309 87.422062 -0.0042817718 -0.97723188 -70.575235 88.397135 -72.638281 -91.999268 
	-0.0042817718 -0.97723188 -37.033083 87.415361 -72.638281 -91.999268 -70.575252 88.37744 
	-70.575235 88.397135 -72.638281 -91.999268 -37.03309 87.422062 -0.0042817718 -0.97723188 
	-72.638281 -91.999268 -70.575252 88.37744 -0.0042817718 -0.97723188 -37.033083 87.415361 
0.7 -36.971688 87.421061 -0.0043055685 -0.98418444 -70.513021 88.385743 -72.576066 -92.013475 
	-0.0043055685 -0.98418444 -36.971681 87.414311 -72.576066 -92.013475 -70.513037 88.365907 
	-70.513021 88.385743 -72.576066 -92.013475 -36.971688 87.421061 -0.0043055685 -0.98418444 
	-72.576066 -92.013475 -70.513037 88.365907 -0.0043055685 -0.98418444 -36.971681 87.414311 
0.705 -36.91072 87.419995 -0.0043294102 -0.99113669 -70.451249 88.374352 -72.514295 -92.027682 
	-0.0043294102 -0.99113669 -36.910713 87.413197 -72.514295 -92.027682 -70.451266 88.354375 
	-70.451249 88.374352 -72.514295 -92.027682 -36.91072 87.419995 -0.0043294102 -0.99113669 
	-72.514295 -92.027682 -70.451266 88.354375 -0.0043294102 -0.99113669 -36.910713 87.413197 
0.71 -36.850181 87.418867 -0.0043532974 -0.99808863 -70.389915 88.362961 -72.45296 -92.041887 
	-0.0043532974 -0.99808863 -36.850174 87.41202 -72.45296 -92.041887 -70.389931 88.342844 
	-70.389915 88.362961 -72.45296 -92.041887 -36.850181 87.418867 -0.0043532974 -0.99808863 
	-72.45296 -92.041887 -70.389931 88.342844 -0.0043532974 -0.99808863 -36.850174 87.41202 
0.715 -36.790064 87.417676 -0.0043772304 -1.0050403 -70.329011 88.351571 -72.392057 -92.056093 
	-0.0043772304 -1.0050403 -36.790057 87.410781 -72.392057 -92.056093 -70.329027 88.331313 
	-70.329011 88.351571 -72.392057 -92.056093 -36.790064 87.417676 -0.0043772304 -1.0050403 
	-72.392057 -92.056093 -70.329027 88.331313 -0.0043772304 -1.0050403 -36.790057 87.410781 
0.72 -36.730363 87.416424 -0.0044012097 -1.0119916 -70.268533 88.340182 -72.331578 -92.070297 
	-0.0044012097 -1.0119916 -36.730356 87.409481 -72.331578 -92.070297 -70.268549 88.319783 
	-70.268533 88.340182 -72.331578 -92.070297 -36.730363 87.416424 -0.0044012097 -1.0119916 
	-72.331578 -92.070297 -70.268549 88.319783 -0.0044012097 -1.0119916 -36.730356 87.409481 
0.725 -36.671073 87.415113 -0.0044252356 -1.0189427 -70.208473 88.328793 -72.271518 -92.084501 
	-0.0044252356 -1.0189427 -36.671066 87.408122 -72.271518 -92.084501 -70.208489 88.308253 
	-70.208473 88.328793 -72.271518 -92.084501 -36.671073 87.415113 -0.0044252356 -1.0189427 
	-72.271518 -92.084501 -70.208489 88.308253 -0.0044252356 -1.0189427 -36.671066 87.408122 
0.73 -36.612188 87.413743 -0.0044493086 -1.0258935 -70.148827 88.317404 -72.211872 -92.098704 
	-0.0044493086 -1.0258935 -36.612181 87.406703 -72.211872 -92.098704 -70.148842 88.296724 
	-70.148827 88.317404 -72.211872 -92.098704 -36.612188 87.413743 -0.0044493086 -1.0258935 
	-72.211872 -92.098704 -70.148842 88.296724 -0.0044493086 -1.0258935 -36.612181 87.406703 
0.735 -36.553702 87.412315 -0.004473429 -1.0328439 -70.089589 88.306016 -72.152633 -92.112907 
	-0.004473429 -1.0328439 -36.553695 87.405227 -72.152633 -92.112907 -70.089604 88.285195 
	-70.089589 88.306016 -72.152633 -92.112907 -36.553702 87.412315 -0.004473429 -1.0328439 
	-72.152633 -92.112907 -70.089604 88.285195 -0.004473429 -1.0328439 -36.553695 87.405227 
0.74 -36.495611 87.41083 -0.0044975973 -1.0397941 -70.030752 88.294629 -72.093796 -92.127109 
	-0.0044975973 -1.0397941 -36.495604 87.403694 -72.093796 -92.127109 -70.030767 88.273667 
	-70.030752 88.294629 -72.093796 -92.127109 -36.495611 87.41083 -0.0044975973 -1.0397941 
	-72.093796 -92.127109 -70.030767 88.273667 -0.0044975973 -1.0397941 -36.495604 87.403694 
0.745 -36.437909 87.40929 -0.0045218138 -1.046744 -69.972312 88.283242 -72.035355 -92.14131 
	-0.0045218138 -1.046744 -36.437901 87.402105 -72.035355 -92.14131 -69.972327 88.262139 
	-69.972312 88.283242 -72.035355 -92.14131 -36.437909 87.40929 -0.0045218138 -1.046744 
	-72.035355 -92.14131 -69.972327 88.262139 -0.0045218138 -1.046744 -36.437901 87.402105 
0.75 -36.38059 87.407694 -0.0045460789 -1.0536937 -69.914264 88.271856 -71.977306 -92.155511 
	-0.0045460789 -1.0536937 -36.380583 87.400461 -71.977306 -92.155511 -69.914278 88.250612 
	-69.914264 88.271856 -71.977306 -92.155511 -36.38059 87.407694 -0.0045460789 -1.0536937 
	-71.977306 -92.155511 -69.914278 88.250612 -0.0045460789 -1.0536937 -36.380583 87.400461 
0.755 -36.32365 87.406045 -0.0045703929 -1.060643 -69.856602 88.26047 -71.919643 -92.169711 
	-0.0045703929 -1.060643 -36.323642 87.398763 -71.919643 -92.169711 -69.856616 88.239085 
	-69.856602 88.26047 -71.919643 -92.169711 -36.32365 87.406045 -0.0045703929 -1.060643 
	-71.919643 -92.169711 -69.856616 88.239085 -0.0045703929 -1.060643 -36.323642 87.398763 
0.76 -36.267083 87.404343 -0.0045947562 -1.0675921 -69.79932 88.249084 -71.862362 -92.18391 
	-0.0045947562 -1.0675921 -36.267076 87.397013 -71.862362 -92.18391 -69.799335 88.227559 
	-69.79932 88.249084 -71.862362 -92.18391 -36.267083 87.404343 -0.0045947562 -1.0675921 
	-71.862362 -92.18391 -69.799335 88.227559 -0.0045947562 -1.0675921 -36.267076 87.397013 
0.765 -36.210885 87.402589 -0.0046191691 -1.0745409 -69.742415 88.2377 -71.805456 -92.198109 
	-0.0046191691 -1.0745409 -36.210878 87.39521 -71.805456 -92.198109 -69.742429 88.216033 
	-69.742415 88.2377 -71.805456 -92.198109 -36.210885 87.402589 -0.0046191691 -1.0745409 
	-71.805456 -92.198109 -69.742429 88.216033 -0.0046191691 -1.0745409 -36.210878 87.39521 
0.77 -36.155051 87.400783 -0.0046436321 -1.0814894 -69.685882 88.226315 -71.748921 -92.212307 
	-0.0046436321 -1.0814894 -36.155044 87.393356 -71.748921 -92.212307 -69.685895 88.204508 
	-69.685882 88.226315 -71.748921 -92.212307 -36.155051 87.400783 -0.0046436321 -1.0814894 
	-71.748921 -92.212307 -69.685895 88.204508 -0.0046436321 -1.0814894 -36.155044 87.393356 
0.775 -36.099577 87.398927 -0.0046681454 -1.0884377 -69.629714 88.214931 -71.692753 -92.226505 
	-0.0046681454 -1.0884377 -36.09957 87.391452 -71.692753 -92.226505 -69.629728 88.192983 
	-69.629714 88.214931 -71.692753 -92.226505 -36.099577 87.398927 -0.0046681454 -1.0884377 
	-71.692753 -92.226505 -69.629728 88.192983 -0.0046681454 -1.0884377 -36.09957 87.391452 
0.78 -36.044457 87.397021 -0.0046927094 -1.0953857 -69.573908 88.203548 -71.636946 -92.240702 
	-0.0046927094 -1.0953857 -36.04445 87.389498 -71.636946 -92.240702 -69.573922 88.181459 
	-69.573908 88.203548 -71.636946 -92.240702 -36.044457 87.397021 -0.0046927094 -1.0953857 
	-71.636946 -92.240702 -69.573922 88.181459 -0.0046927094 -1.0953857 -36.04445 87.389498 
0.785 -35.989688 87.395067 -0.0047173244 -1.1023334 -69.51846 88.192165 -71.581497 -92.254898 
	-0.0047173244 -1.1023334 -35.98968 87.387495 -71.581497 -92.254898 -69.518473 88.169935 
	-69.51846 88.192165 -71.581497 -92.254898 -35.989688 87.395067 -0.0047173244 -1.1023334 
	-71.581497 -92.254898 -69.518473 88.169935 -0.0047173244 -1.1023334 -35.98968 87.387495 
0.79 -35.935264 87.393065 -0.0047419907 -1.1092808 -69.463364 88.180783 -71.526399 -92.269094 
	-0.0047419907 -1.1092808 -35.935256 87.385444 -71.526399 -92.269094 -69.463376 88.158412 
	-69.463364 88.180783 -71.526399 -92.269094 -35.935264 87.393065 -0.0047419907 -1.1092808 
	-71.526399 -92.269094 -69.463376 88.158412 -0.0047419907 -1.1092808 -35.935256 87.385444 
0.795 -35.881181 87.391015 -0.0047667087 -1.116228 -69.408615 88.169401 -71.47165 -92.283289 
	-0.0047667087 -1.116228 -35.881174 87.383346 -71.47165 -92.283289 -69.408628 88.146889 
	-69.408615 88.169401 -71.47165 -92.283289 -35.881181 87.391015 -0.0047667087 -1.116228 
	-71.47165 -92.283289 -69.408628 88.146889 -0.0047667087 -1.116228 -35.881174 87.383346 
0.8 -35.827436 87.388919 -0.0047914787 -1.123175 -69.354211 88.158019 -71.417245 -92.297484 
	-0.0047914787 -1.123175 -35.827429 87.381202 -71.417245 -92.297484 -69.354223 88.135367 
	-69.354211 88.158019 -71.417245 -92.297484 -35.827436 87.388919 -0.0047914787 -1.123175 
	-71.417245 -92.297484 -69.354223 88.135367 -0.0047914787 -1.123175 -35.827429 87.381202 
0.805 -35.774024 87.386777 -0.0048163009 -1.1301217 -69.300146 88.146638 -71.363179 -92.311678 
	-0.0048163009 -1.1301217 -35.774016 87.379011 -71.363179 -92.311678 -69.300158 88.123845 
	-69.300146 88.146638 -71.363179 -92.311678 -35.774024 87.386777 -0.0048163009 -1.1301217 
	-71.363179 -92.311678 -69.300158 88.123845 -0.0048163009 -1.1301217 -35.774016 87.379011 
0.81 -35.72094 87.38459 -0.0048411757 -1.1370681 -69.246417 88.135258 -71.309448 -92.325872 
	-0.0048411757 -1.1370681 -35.720933 87.376776 -71.309448 -92.325872 -69.246428 88.112324 
	-69.246417 88.135258 -71.309448 -92.325872 -35.72094 87.38459 -0.0048411757 -1.1370681 
	-71.309448 -92.325872 -69.246428 88.112324 -0.0048411757 -1.1370681 -35.720933 87.376776 
0.815 -35.668182 87.382359 -0.0048661034 -1.1440143 -69.193018 88.123878 -71.256048 -92.340064 
	-0.0048661034 -1.1440143 -35.668174 87.374497 -71.256048 -92.340064 -69.19303 88.100803 
	-69.193018 88.123878 -71.256048 -92.340064 -35.668182 87.382359 -0.0048661034 -1.1440143 
	-71.256048 -92.340064 -69.19303 88.100803 -0.0048661034 -1.1440143 -35.668174 87.374497 
0.82 -35.615744 87.380084 -0.0048910842 -1.1509602 -69.139947 88.112498 -71.202975 -92.354257 
	-0.0048910842 -1.1509602 -35.615737 87.372174 -71.202975 -92.354257 -69.139958 88.089283 
	-69.139947 88.112498 -71.202975 -92.354257 -35.615744 87.380084 -0.0048910842 -1.1509602 
	-71.202975 -92.354257 -69.139958 88.089283 -0.0048910842 -1.1509602 -35.615737 87.372174 
0.825 -35.563624 87.377767 -0.0049161185 -1.1579059 -69.087198 88.101119 -71.150225 -92.368449 
	-0.0049161185 -1.1579059 -35.563616 87.369808 -71.150225 -92.368449 -69.087209 88.077763 
	-69.087198 88.101119 -71.150225 -92.368449 -35.563624 87.377767 -0.0049161186 -1.1579059 
	-71.150225 -92.368449 -69.087209 88.077763 -0.0049161186 -1.1579059 -35.563616 87.369808 
0.83 -35.511816 87.375407 -0.0049412066 -1.1648513 -69.034769 88.08974 -71.097795 -92.38264 
	-0.0049412066 -1.1648513 -35.511809 87.367399 -71.097795 -92.38264 -69.03478 88.066243 
	-69.034769 88.08974 -71.097795 -92.38264 -35.511816 87.375407 -0.0049412066 -1.1648513 
	-71.097795 -92.38264 -69.03478 88.066243 -0.0049412066 -1.1648513 -35.511809 87.367399 
0.835 -35.460318 87.373005 -0.0049663487 -1.1717965 -68.982655 88.078362 -71.045679 -92.396831 
	-0.0049663487 -1.1717965 -35.460311 87.364949 -71.045679 -92.396831 -68.982666 88.054724 
	-68.982655 88.078362 -71.045679 -92.396831 -35.460318 87.373005 -0.0049663487 -1.1717965 
	-71.045679 -92.396831 -68.982666 88.054724 -0.0049663487 -1.1717965 -35.460311 87.364949 
0.84 -35.409126 87.370562 -0.0049915451 -1.1787414 -68.930853 88.066984 -70.993876 -92.411021 
	-0.0049915451 -1.1787414 -35.409119 87.362458 -70.993876 -92.411021 -68.930863 88.043206 
	-68.930853 88.066984 -70.993876 -92.411021 -35.409126 87.370562 -0.0049915452 -1.1787414 
	-70.993876 -92.411021 -68.930863 88.043206 -0.0049915452 -1.1787414 -35.409119 87.362458 
0.845 -35.358236 87.368079 -0.0050167962 -1.1856862 -68.879359 88.055607 -70.94238 -92.425211 
	-0.0050167962 -1.1856862 -35.358229 87.359927 -70.94238 -92.425211 -68.879369 88.031687 
	-68.879359 88.055607 -70.94238 -92.425211 -35.358236 87.368079 -0.0050167961 -1.1856862 
	-70.94238 -92.425211 -68.879369 88.031687 -0.0050167961 -1.1856862 -35.358229 87.359927 
0.85 -35.307645 87.365557 -0.005042102 -1.1926306 -68.828169 88.04423 -70.891188 -92.4394 
	-0.005042102 -1.1926306 -35.307637 87.357356 -70.891188 -92.4394 -68.828179 88.02017 
	-68.828169 88.04423 -70.891188 -92.4394 -35.307645 87.365557 -0.005042102 -1.1926306 
	-70.891188 -92.4394 -68.828179 88.02017 -0.005042102 -1.1926306 -35.307637 87.357356 
0.855 -35.257349 87.362995 -0.005067463 -1.1995748 -68.777279 88.032854 -70.840297 -92.453588 
	-0.005067463 -1.1995748 -35.257341 87.354745 -70.840297 -92.453588 -68.777289 88.008652 
	-68.777279 88.032854 -70.840297 -92.453588 -35.257349 87.362995 -0.005067463 -1.1995748 
	-70.840297 -92.453588 -68.777289 88.008652 -0.005067463 -1.1995748 -35.257341 87.354745 
0.86 -35.207344 87.360394 -0.0050928793 -1.2065188 -68.726687 88.021478 -70.789703 -92.467776 
	-0.0050928793 -1.2065188 -35.207336 87.352096 -70.789703 -92.467776 -68.726697 87.997136 
	-68.726687 88.021478 -70.789703 -92.467776 -35.207344 87.360394 -0.0050928794 -1.2065188 
	-70.789703 -92.467776 -68.726697 87.997136 -0.0050928794 -1.2065188 -35.207336 87.352096 
0.865 -35.157628 87.357756 -0.0051183514 -1.2134626 -68.676389 88.010102 -70.739403 -92.481964 
	-0.0051183514 -1.2134626 -35.15762 87.349409 -70.739403 -92.481964 -68.676398 87.985619 
	-68.676389 88.010102 -70.739403 -92.481964 -35.157628 87.357756 -0.0051183514 -1.2134626 
	-70.739403 -92.481964 -68.676398 87.985619 -0.0051183514 -1.2134626 -35.15762 87.349409 
0.87 -35.108197 87.35508 -0.0051438793 -1.2204061 -68.626381 87.998727 -70.689393 -92.496151 
	-0.0051438793 -1.2204061 -35.108189 87.346685 -70.689393 -92.496151 -68.62639 87.974103 
	-68.626381 87.998727 -70.689393 -92.496151 -35.108197 87.35508 -0.0051438792 -1.2204061 
	-70.689393 -92.496151 -68.62639 87.974103 -0.0051438792 -1.2204061 -35.108189 87.346685 
0.875 -35.059047 87.352367 -0.0051694633 -1.2273494 -68.57666 87.987352 -70.63967 -92.510338 
	-0.0051694633 -1.2273494 -35.05904 87.343924 -70.63967 -92.510338 -68.576669 87.962588 
	-68.57666 87.987352 -70.63967 -92.510338 -35.059047 87.352367 -0.0051694633 -1.2273494 
	-70.63967 -92.510338 -68.576669 87.962588 -0.0051694633 -1.2273494 -35.05904 87.343924 
0.88 -35.010177 87.349617 -0.0051951037 -1.2342925 -68.527223 87.975978 -70.590231 -92.524524 
	-0.0051951037 -1.2342925 -35.010169 87.341126 -70.590231 -92.524524 -68.527231 87.951072 
	-68.527223 87.975978 -70.590231 -92.524524 -35.010177 87.349617 -0.0051951037 -1.2342925 
	-70.590231 -92.524524 -68.527231 87.951072 -0.0051951037 -1.2342925 -35.010169 87.341126 
0.885 -34.961581 87.346832 -0.0052208008 -1.2412353 -68.478066 87.964604 -70.541072 -92.538709 
	-0.0052208008 -1.2412353 -34.961574 87.338292 -70.541072 -92.538709 -68.478074 87.939558 
	-68.478066 87.964604 -70.541072 -92.538709 -34.961581 87.346832 -0.0052208008 -1.2412353 
	-70.541072 -92.538709 -68.478074 87.939558 -0.0052208008 -1.2412353 -34.961574 87.338292 
0.89 -34.913258 87.344011 -0.0052465547 -1.2481779 -68.429187 87.95323 -70.492191 -92.552894 
	-0.0052465547 -1.2481779 -34.913251 87.335423 -70.492191 -92.552894 -68.429195 87.928043 
	-68.429187 87.95323 -70.492191 -92.552894 -34.913258 87.344011 -0.0052465547 -1.2481779 
	-70.492191 -92.552894 -68.429195 87.928043 -0.0052465547 -1.2481779 -34.913251 87.335423 
0.895 -34.865205 87.341156 -0.0052723658 -1.2551203 -68.380582 87.941857 -70.443584 -92.567079 
	-0.0052723658 -1.2551203 -34.865197 87.332519 -70.443584 -92.567079 -68.38059 87.91653 
	-68.380582 87.941857 -70.443584 -92.567079 -34.865205 87.341156 -0.0052723658 -1.2551203 
	-70.443584 -92.567079 -68.38059 87.91653 -0.0052723658 -1.2551203 -34.865197 87.332519 
0.9 -34.817418 87.338266 -0.0052982341 -1.2620624 -68.332249 87.930484 -70.395248 -92.581263 
	-0.0052982341 -1.2620624 -34.81741 87.329581 -70.395248 -92.581263 -68.332256 87.905016 
	-68.332249 87.930484 -70.395248 -92.581263 -34.817418 87.338266 -0.0052982341 -1.2620624 
	-70.395248 -92.581263 -68.332256 87.905016 -0.0052982341 -1.2620624 -34.81741 87.329581 
0.905 -34.769894 87.335342 -0.0053241601 -1.2690044 -68.284183 87.919112 -70.34718 -92.595446 
	-0.0053241601 -1.2690044 -34.769886 87.326609 -70.34718 -92.595446 -68.28419 87.893503 
	-68.284183 87.919112 -70.34718 -92.595446 -34.769894 87.335342 -0.0053241601 -1.2690044 
	-70.34718 -92.595446 -68.28419 87.893503 -0.0053241601 -1.2690044 -34.769886 87.326609 
0.91 -34.72263 87.332385 -0.0053501439 -1.2759461 -68.236383 87.90774 -70.299378 -92.609629 
	-0.0053501439 -1.2759461 -34.722622 87.323603 -70.299378 -92.609629 -68.23639 87.88199 
	-68.236383 87.90774 -70.299378 -92.609629 -34.72263 87.332385 -0.0053501439 -1.2759461 
	-70.299378 -92.609629 -68.23639 87.88199 -0.0053501439 -1.2759461 -34.722622 87.323603 
0.915 -34.675625 87.329395 -0.0053761856 -1.2828876 -68.188845 87.896369 -70.251838 -92.623812 
	-0.0053761856 -1.2828876 -34.675617 87.320565 -70.251838 -92.623812 -68.188852 87.870478 
	-68.188845 87.896369 -70.251838 -92.623812 -34.675625 87.329395 -0.0053761856 -1.2828876 
	-70.251838 -92.623812 -68.188852 87.870478 -0.0053761856 -1.2828876 -34.675617 87.320565 
0.92 -34.628874 87.326373 -0.0054022857 -1.2898289 -68.141567 87.884998 -70.204557 -92.637994 
	-0.0054022857 -1.2898289 -34.628866 87.317494 -70.204557 -92.637994 -68.141573 87.858966 
	-68.141567 87.884998 -70.204557 -92.637994 -34.628874 87.326373 -0.0054022857 -1.2898289 
	-70.204557 -92.637994 -68.141573 87.858966 -0.0054022857 -1.2898289 -34.628866 87.317494 
0.925 -34.582375 87.323318 -0.0054284441 -1.2967699 -68.094546 87.873627 -70.157533 -92.652175 
	-0.0054284441 -1.2967699 -34.582367 87.314391 -70.157533 -92.652175 -68.094551 87.847455 
	-68.094546 87.873627 -70.157533 -92.652175 -34.582375 87.323318 -0.0054284442 -1.2967699 
	-70.157533 -92.652175 -68.094551 87.847455 -0.0054284442 -1.2967699 -34.582367 87.314391 
0.93 -34.536126 87.320232 -0.0054546613 -1.3037108 -68.047778 87.862257 -70.110763 -92.666356 
	-0.0054546613 -1.3037108 -34.536118 87.311257 -70.110763 -92.666356 -68.047784 87.835944 
	-68.047778 87.862257 -70.110763 -92.666356 -34.536126 87.320232 -0.0054546613 -1.3037108 
	-70.110763 -92.666356 -68.047784 87.835944 -0.0054546613 -1.3037108 -34.536118 87.311257 
0.935 -34.490123 87.317115 -0.0054809373 -1.3106514 -68.001262 87.850887 -70.064244 -92.680537 
	-0.0054809373 -1.3106514 -34.490115 87.308091 -70.064244 -92.680537 -68.001267 87.824433 
	-68.001262 87.850887 -70.064244 -92.680537 -34.490123 87.317115 -0.0054809373 -1.3106514 
	-70.064244 -92.680537 -68.001267 87.824433 -0.0054809373 -1.3106514 -34.490115 87.308091 
0.94 -34.444365 87.313967 -0.0055072725 -1.3175918 -67.954994 87.839518 -70.017974 -92.694717 
	-0.0055072725 -1.3175918 -34.444357 87.304895 -70.017974 -92.694717 -67.954999 87.812923 
	-67.954994 87.839518 -70.017974 -92.694717 -34.444365 87.313967 -0.0055072725 -1.3175918 
	-70.017974 -92.694717 -67.954999 87.812923 -0.0055072725 -1.3175918 -34.444357 87.304895 
0.945 -34.398848 87.310788 -0.0055336669 -1.324532 -67.908972 87.828148 -69.971949 -92.708897 
	-0.0055336669 -1.324532 -34.39884 87.301668 -69.971949 -92.708897 -67.908977 87.801413 
	-67.908972 87.828148 -69.971949 -92.708897 -34.398848 87.310788 -0.0055336669 -1.324532 
	-69.971949 -92.708897 -67.908977 87.801413 -0.0055336669 -1.324532 -34.39884 87.301668 
0.95 -34.35357 87.30758 -0.0055601208 -1.331472 -67.863194 87.81678 -69.926168 -92.723076 
	-0.0055601208 -1.331472 -34.353562 87.298411 -69.926168 -92.723076 -67.863198 87.789904 
	-67.863194 87.81678 -69.926168 -92.723076 -34.35357 87.30758 -0.0055601208 -1.331472 
	-69.926168 -92.723076 -67.863198 87.789904 -0.0055601208 -1.331472 -34.353562 87.298411 
0.955 -34.308529 87.304342 -0.0055866345 -1.3384118 -67.817656 87.805411 -69.880627 -92.737255 
	-0.0055866345 -1.3384118 -34.308521 87.295125 -69.880627 -92.737255 -67.81766 87.778395 
	-67.817656 87.805411 -69.880627 -92.737255 -34.308529 87.304342 -0.0055866345 -1.3384118 
	-69.880627 -92.737255 -67.81766 87.778395 -0.0055866345 -1.3384118 -34.308521 87.295125 
0.96 -34.263722 87.301076 -0.005613208 -1.3453514 -67.772357 87.794044 -69.835325 -92.751433 
	-0.005613208 -1.3453514 -34.263713 87.29181 -69.835325 -92.751433 -67.77236 87.766886 
	-67.772357 87.794044 -69.835325 -92.751433 -34.263722 87.301076 -0.005613208 -1.3453514 
	-69.835325 -92.751433 -67.77236 87.766886 -0.005613208 -1.3453514 -34.263713 87.29181 
0.965 -34.219146 87.29778 -0.0056398416 -1.3522908 -67.727293 87.782676 -69.790259 -92.765611 
	-0.0056398416 -1.3522908 -34.219138 87.288466 -69.790259 -92.765611 -67.727296 87.755378 
	-67.727293 87.782676 -69.790259 -92.765611 -34.219146 87.29778 -0.0056398416 -1.3522908 
	-69.790259 -92.765611 -67.727296 87.755378 -0.0056398416 -1.3522908 -34.219138 87.288466 
0.97 -34.1748 87.294456 -0.0056665355 -1.35923 -67.682463 87.771309 -69.745425 -92.779788 
	-0.0056665355 -1.35923 -34.174792 87.285093 -69.745425 -92.779788 -67.682465 87.74387 
	-67.682463 87.771309 -69.745425 -92.779788 -34.1748 87.294456 -0.0056665355 -1.35923 
	-69.745425 -92.779788 -67.682465 87.74387 -0.0056665355 -1.35923 -34.174792 87.285093 
0.975 -34.13068 87.291104 -0.0056932899 -1.3661689 -67.637863 87.759942 -69.700823 -92.793965 
	-0.0056932899 -1.3661689 -34.130672 87.281693 -69.700823 -92.793965 -67.637866 87.732362 
	-67.637863 87.759942 -69.700823 -92.793965 -34.13068 87.291104 -0.0056932899 -1.3661689 
	-69.700823 -92.793965 -67.637866 87.732362 -0.0056932899 -1.3661689 -34.130672 87.281693 
0.98 -34.086785 87.287724 -0.005720105 -1.3731077 -67.593492 87.748576 -69.656449 -92.808141 
	-0.005720105 -1.3731077 -34.086777 87.278265 -69.656449 -92.808141 -67.593495 87.720855 
	-67.593492 87.748576 -69.656449 -92.808141 -34.086785 87.287724 -0.005720105 -1.3731077 
	-69.656449 -92.808141 -67.593495 87.720855 -0.005720105 -1.3731077 -34.086777 87.278265 
0.985 -34.043113 87.284318 -0.0057469809 -1.3800463 -67.549348 87.737209 -69.612301 -92.822318 
	-0.0057469809 -1.3800463 -34.043105 87.27481 -69.612301 -92.822318 -67.54935 87.709348 
	-67.549348 87.737209 -69.612301 -92.822318 -34.043113 87.284318 -0.0057469809 -1.3800463 
	-69.612301 -92.822318 -67.54935 87.709348 -0.0057469809 -1.3800463 -34.043105 87.27481 
0.99 -33.999661 87.280884 -0.0057739178 -1.3869846 -67.505427 87.725844 -69.568378 -92.836493 
	-0.0057739178 -1.3869846 -33.999652 87.271328 -69.568378 -92.836493 -67.505429 87.697842 
	-67.505427 87.725844 -69.568378 -92.836493 -33.999661 87.280884 -0.0057739178 -1.3869846 
	-69.568378 -92.836493 -67.505429 87.697842 -0.0057739178 -1.3869846 -33.999652 87.271328 
0.995 -33.956426 87.277423 -0.005800916 -1.3939228 -67.461729 87.714478 -69.524675 -92.850668 
	-0.005800916 -1.3939228 -33.956418 87.267819 -69.524675 -92.850668 -67.46173 87.686336 
	-67.461729 87.714478 -69.524675 -92.850668 -33.956426 87.277423 -0.005800916 -1.3939228 
	-69.524675 -92.850668 -67.46173 87.686336 -0.005800916 -1.3939228 -33.956418 87.267819 
1 -33.913407 87.273937 -0.0058279755 -1.4008608 -67.418249 87.703114 -69.481193 -92.864843 
	-0.0058279755 -1.4008608 -33.913399 87.264284 -69.481193 -92.864843 -67.41825 87.67483 
	-67.418249 87.703114 -69.481193 -92.864843 -33.913407 87.273937 -0.0058279755 -1.4008608 
	-69.481193 -92.864843 -67.41825 87.67483 -0.0058279755 -1.4008608 -33.913399 87.264284 
1.01 -33.828008 87.266886 -0.0058822795 -1.4147361 -67.33194 87.680385 -69.394877 -92.893191 
	-0.0058822795 -1.4147361 -33.828 87.257137 -69.394877 -92.893191 -67.33194 87.65182 
	-67.33194 87.680385 -69.394877 -92.893191 -33.828008 87.266886 -0.0058822794 -1.4147361 
	-69.394877 -92.893191 -67.33194 87.65182 -0.0058822794 -1.4147361 -33.828 87.257137 
1.02 -33.743447 87.259735 -0.005936831 -1.4286107 -67.246484 87.657657 -69.309414 -92.921537 
	-0.005936831 -1.4286107 -33.743438 87.249888 -69.309414 -92.921537 -67.246483 87.628811 
	-67.246484 87.657657 -69.309414 -92.921537 -33.743447 87.259735 -0.005936831 -1.4286107 
	-69.309414 -92.921537 -67.246483 87.628811 -0.005936831 -1.4286107 -33.743438 87.249888 
1.03 -33.659707 87.252485 -0.0059916316 -1.4424845 -67.161862 87.634931 -69.224785 -92.949882 
	-0.0059916316 -1.4424845 -33.659698 87.242542 -69.224785 -92.949882 -67.161861 87.605803 
	-67.161862 87.634931 -69.224785 -92.949882 -33.659707 87.252485 -0.0059916316 -1.4424845 
	-69.224785 -92.949882 -67.161861 87.605803 -0.0059916316 -1.4424845 -33.659698 87.242542 
1.04 -33.576772 87.245139 -0.0060466825 -1.4563576 -67.078061 87.612207 -69.140976 -92.978225 
	-0.0060466825 -1.4563576 -33.576763 87.235099 -69.140976 -92.978225 -67.078059 87.582797 
	-67.078061 87.612207 -69.140976 -92.978225 -33.576772 87.245139 -0.0060466825 -1.4563576 
	-69.140976 -92.978225 -67.078059 87.582797 -0.0060466825 -1.4563576 -33.576763 87.235099 
1.05 -33.494627 87.237699 -0.0061019849 -1.4702299 -66.995063 87.589484 -69.057971 -93.006566 
	-0.0061019849 -1.4702299 -33.494619 87.227562 -69.057971 -93.006566 -66.99506 87.559793 
	-66.995063 87.589484 -69.057971 -93.006566 -33.494627 87.237699 -0.0061019849 -1.4702299 
	-69.057971 -93.006566 -66.99506 87.559793 -0.0061019849 -1.4702299 -33.494619 87.227562 
1.06 -33.413258 87.230168 -0.0061575402 -1.4841014 -66.912853 87.566762 -68.975754 -93.034906 
	-0.0061575402 -1.4841014 -33.413249 87.219934 -68.975754 -93.034906 -66.91285 87.536789 
	-66.912853 87.566762 -68.975754 -93.034906 -33.413258 87.230168 -0.0061575402 -1.4841014 
	-68.975754 -93.034906 -66.91285 87.536789 -0.0061575402 -1.4841014 -33.413249 87.219934 
1.07 -33.332649 87.222547 -0.0062133495 -1.4979723 -66.831417 87.544041 -68.89431 -93.063244 
	-0.0062133495 -1.4979723 -33.332641 87.212216 -68.89431 -93.063244 -66.831413 87.513787 
	-66.831417 87.544041 -68.89431 -93.063244 -33.332649 87.222547 -0.0062133495 -1.4979723 
	-68.89431 -93.063244 -66.831413 87.513787 -0.0062133495 -1.4979723 -33.332641 87.212216 
1.08 -33.252787 87.214839 -0.006269414 -1.5118424 -66.750741 87.521322 -68.813626 -93.09158 
	-0.006269414 -1.5118424 -33.252778 87.204412 -68.813626 -93.09158 -66.750736 87.490787 
	-66.750741 87.521322 -68.813626 -93.09158 -33.252787 87.214839 -0.006269414 -1.5118424 
	-68.813626 -93.09158 -66.750736 87.490787 -0.006269414 -1.5118424 -33.252778 87.204412 
1.09 -33.173658 87.207046 -0.0063257349 -1.5257117 -66.67081 87.498605 -68.733686 -93.119915 
	-0.0063257349 -1.5257117 -33.173649 87.196522 -68.733686 -93.119915 -66.670805 87.467788 
	-66.67081 87.498605 -68.733686 -93.119915 -33.173658 87.207046 -0.0063257349 -1.5257117 
	-68.733686 -93.119915 -66.670805 87.467788 -0.0063257349 -1.5257117 -33.173649 87.196522 
1.1 -33.095248 87.19917 -0.0063823134 -1.5395804 -66.591611 87.475888 -68.654479 -93.148249 
	-0.0063823134 -1.5395804 -33.09524 87.188549 -68.654479 -93.148249 -66.591605 87.44479 
	-66.591611 87.475888 -68.654479 -93.148249 -33.095248 87.19917 -0.0063823134 -1.5395804 
	-68.654479 -93.148249 -66.591605 87.44479 -0.0063823134 -1.5395804 -33.09524 87.188549 
1.11 -33.017546 87.191213 -0.0064391505 -1.5534483 -66.51313 87.453173 -68.575989 -93.17658 
	-0.0064391505 -1.5534483 -33.017537 87.180495 -68.575989 -93.17658 -66.513123 87.421793 
	-66.51313 87.453173 -68.575989 -93.17658 -33.017546 87.191213 -0.0064391505 -1.5534483 
	-68.575989 -93.17658 -66.513123 87.421793 -0.0064391505 -1.5534483 -33.017537 87.180495 
1.12 -32.940537 87.183176 -0.0064962473 -1.5673156 -66.435355 87.430459 -68.498206 -93.20491 
	-0.0064962473 -1.5673156 -32.940528 87.172361 -68.498206 -93.20491 -66.435347 87.398798 
	-66.435355 87.430459 -68.498206 -93.20491 -32.940537 87.183176 -0.0064962473 -1.5673156 
	-68.498206 -93.20491 -66.435347 87.398798 -0.0064962473 -1.5673156 -32.940528 87.172361 
1.13 -32.864209 87.175062 -0.0065536049 -1.5811821 -66.358274 87.407747 -68.421115 -93.233239 
	-0.0065536049 -1.5811821 -32.864201 87.16415 -68.421115 -93.233239 -66.358265 87.375804 
	-66.358274 87.407747 -68.421115 -93.233239 -32.864209 87.175062 -0.0065536049 -1.5811821 
	-68.421115 -93.233239 -66.358265 87.375804 -0.0065536049 -1.5811821 -32.864201 87.16415 
1.14 -32.788552 87.166871 -0.0066112243 -1.595048 -66.281873 87.385036 -68.344705 -93.261566 
	-0.0066112243 -1.595048 -32.788543 87.155863 -68.344705 -93.261566 -66.281863 87.352812 
	-66.281873 87.385036 -68.344705 -93.261566 -32.788552 87.166871 -0.0066112243 -1.595048 
	-68.344705 -93.261566 -66.281863 87.352812 -0.0066112243 -1.595048 -32.788543 87.155863 
1.15 -32.713553 87.158607 -0.0066691066 -1.6089132 -66.206141 87.362326 -68.268963 -93.289892 
	-0.0066691066 -1.6089132 -32.713544 87.147502 -68.268963 -93.289892 -66.20613 87.32982 
	-66.206141 87.362326 -68.268963 -93.289892 -32.713553 87.158607 -0.0066691066 -1.6089132 
	-68.268963 -93.289892 -66.20613 87.32982 -0.0066691066 -1.6089132 -32.713544 87.147502 
1.16 -32.6392 87.15027 -0.0067272526 -1.6227777 -66.131066 87.339617 -68.193879 -93.318216 
	-0.0067272526 -1.6227777 -32.639191 87.139068 -68.193879 -93.318216 -66.131055 87.30683 
	-66.131066 87.339617 -68.193879 -93.318216 -32.6392 87.15027 -0.0067272526 -1.6227777 
	-68.193879 -93.318216 -66.131055 87.30683 -0.0067272526 -1.6227777 -32.639191 87.139068 
1.17 -32.565484 87.141862 -0.0067856634 -1.6366415 -66.056638 87.31691 -68.119441 -93.346538 
	-0.0067856634 -1.6366415 -32.565475 87.130563 -68.119441 -93.346538 -66.056626 87.283841 
	-66.056638 87.31691 -68.119441 -93.346538 -32.565484 87.141862 -0.0067856634 -1.6366415 
	-68.119441 -93.346538 -66.056626 87.283841 -0.0067856634 -1.6366415 -32.565475 87.130563 
1.18 -32.492392 87.133384 -0.00684434 -1.6505047 -65.982845 87.294204 -68.045638 -93.374859 
	-0.00684434 -1.6505047 -32.492383 87.121989 -68.045638 -93.374859 -65.982833 87.260854 
	-65.982845 87.294204 -68.045638 -93.374859 -32.492392 87.133384 -0.00684434 -1.6505047 
	-68.045638 -93.374859 -65.982833 87.260854 -0.00684434 -1.6505047 -32.492383 87.121989 
1.19 -32.419915 87.124839 -0.0069032832 -1.6643672 -65.909677 87.271499 -67.97246 -93.403179 
	-0.0069032832 -1.6643672 -32.419906 87.113347 -67.97246 -93.403179 -65.909663 87.237867 
	-65.909677 87.271499 -67.97246 -93.403179 -32.419915 87.124839 -0.0069032832 -1.6643672 
	-67.97246 -93.403179 -65.909663 87.237867 -0.0069032832 -1.6643672 -32.419906 87.113347 
1.2 -32.348041 87.116227 -0.006962494 -1.678229 -65.837123 87.248795 -67.899895 -93.431497 
	-0.006962494 -1.678229 -32.348032 87.104638 -67.899895 -93.431497 -65.837108 87.214882 
	-65.837123 87.248795 -67.899895 -93.431497 -32.348041 87.116227 -0.006962494 -1.678229 
	-67.899895 -93.431497 -65.837108 87.214882 -0.006962494 -1.678229 -32.348032 87.104638 
1.21 -32.276763 87.10755 -0.0070219732 -1.6920902 -65.765172 87.226093 -67.827934 -93.459814 
	-0.0070219732 -1.6920902 -32.276753 87.095864 -67.827934 -93.459814 -65.765157 87.191898 
	-65.765172 87.226093 -67.827934 -93.459814 -32.276763 87.10755 -0.0070219732 -1.6920902 
	-67.827934 -93.459814 -65.765157 87.191898 -0.0070219732 -1.6920902 -32.276753 87.095864 
1.22 -32.206068 87.09881 -0.0070817217 -1.7059508 -65.693816 87.203391 -67.756567 -93.488129 
	-0.0070817217 -1.7059508 -32.206059 87.087027 -67.756567 -93.488129 -65.693799 87.168916 
	-65.693816 87.203391 -67.756567 -93.488129 -32.206068 87.09881 -0.0070817217 -1.7059508 
	-67.756567 -93.488129 -65.693799 87.168916 -0.0070817217 -1.7059508 -32.206059 87.087027 
1.23 -32.135949 87.090007 -0.0071417403 -1.7198107 -65.623044 87.180691 -67.685783 -93.516443 
	-0.0071417403 -1.7198107 -32.13594 87.078127 -67.685783 -93.516443 -65.623026 87.145934 
	-65.623044 87.180691 -67.685783 -93.516443 -32.135949 87.090007 -0.0071417403 -1.7198107 
	-67.685783 -93.516443 -65.623026 87.145934 -0.0071417403 -1.7198107 -32.13594 87.078127 
1.24 -32.066395 87.081142 -0.00720203 -1.73367 -65.552846 87.157992 -67.615575 -93.544756 
	-0.00720203 -1.73367 -32.066386 87.069166 -67.615575 -93.544756 -65.552828 87.122954 
	-65.552846 87.157992 -67.615575 -93.544756 -32.066395 87.081142 -0.00720203 -1.73367 
	-67.615575 -93.544756 -65.552828 87.122954 -0.00720203 -1.73367 -32.066386 87.069166 
1.25 -31.997398 87.072218 -0.0072625914 -1.7475286 -65.483215 87.135295 -67.545932 -93.573067 
	-0.0072625914 -1.7475286 -31.997389 87.060145 -67.545932 -93.573067 -65.483196 87.099975 
	-65.483215 87.135295 -67.545932 -93.573067 -31.997398 87.072218 -0.0072625914 -1.7475286 
	-67.545932 -93.573067 -65.483196 87.099975 -0.0072625914 -1.7475286 -31.997389 87.060145 
1.26 -31.928949 87.063235 -0.0073234255 -1.7613867 -65.414139 87.112598 -67.476845 -93.601377 
	-0.0073234255 -1.7613867 -31.92894 87.051065 -67.476845 -93.601377 -65.41412 87.076997 
	-65.414139 87.112598 -67.476845 -93.601377 -31.928949 87.063235 -0.0073234255 -1.7613867 
	-67.476845 -93.601377 -65.41412 87.076997 -0.0073234255 -1.7613867 -31.92894 87.051065 
1.27 -31.861039 87.054195 -0.0073845329 -1.7752441 -65.345612 87.089903 -67.408306 -93.629686 
	-0.0073845329 -1.7752441 -31.86103 87.041928 -67.408306 -93.629686 -65.345591 87.05402 
	-65.345612 87.089903 -67.408306 -93.629686 -31.861039 87.054195 -0.0073845329 -1.7752441 
	-67.408306 -93.629686 -65.345591 87.05402 -0.0073845329 -1.7752441 -31.86103 87.041928 
1.28 -31.79366 87.045099 -0.0074459145 -1.7891009 -65.277624 87.067208 -67.340306 -93.657993 
	-0.0074459145 -1.7891009 -31.793651 87.032735 -67.340306 -93.657993 -65.277602 87.031044 
	-65.277624 87.067208 -67.340306 -93.657993 -31.79366 87.045099 -0.0074459145 -1.7891009 
	-67.340306 -93.657993 -65.277602 87.031044 -0.0074459145 -1.7891009 -31.793651 87.032735 
1.29 -31.726803 87.035947 -0.007507571 -1.8029571 -65.210167 87.044515 -67.272837 -93.686298 
	-0.007507571 -1.8029571 -31.726794 87.023486 -67.272837 -93.686298 -65.210144 87.00807 
	-65.210167 87.044515 -67.272837 -93.686298 -31.726803 87.035947 -0.007507571 -1.8029571 
	-67.272837 -93.686298 -65.210144 87.00807 -0.007507571 -1.8029571 -31.726794 87.023486 
1.3 -31.660461 87.026741 -0.0075695031 -1.8168127 -65.143233 87.021823 -67.20589 -93.714603 
	-0.0075695031 -1.8168127 -31.660452 87.014183 -67.20589 -93.714603 -65.143209 86.985097 
	-65.143233 87.021823 -67.20589 -93.714603 -31.660461 87.026741 -0.0075695031 -1.8168127 
	-67.20589 -93.714603 -65.143209 86.985097 -0.0075695031 -1.8168127 -31.660452 87.014183 
1.31 -31.594626 87.017482 -0.0076317116 -1.8306677 -65.076813 86.999133 -67.139458 -93.742906 
	-0.0076317116 -1.8306677 -31.594617 87.004828 -67.139458 -93.742906 -65.076788 86.962124 
	-65.076813 86.999133 -67.139458 -93.742906 -31.594626 87.017482 -0.0076317116 -1.8306677 
	-67.139458 -93.742906 -65.076788 86.962124 -0.0076317116 -1.8306677 -31.594617 87.004828 
1.32 -31.52929 87.008171 -0.0076941971 -1.844522 -65.0109 86.976443 -67.073532 -93.771208 
	-0.0076941971 -1.844522 -31.52928 86.99542 -67.073532 -93.771208 -65.010874 86.939153 
	-65.0109 86.976443 -67.073532 -93.771208 -31.52929 87.008171 -0.0076941971 -1.844522 
	-67.073532 -93.771208 -65.010874 86.939153 -0.0076941971 -1.844522 -31.52928 86.99542 
1.33 -31.464445 86.998809 -0.0077569604 -1.8583758 -64.945486 86.953754 -67.008105 -93.799508 
	-0.0077569604 -1.8583758 -31.464435 86.985961 -67.008105 -93.799508 -64.94546 86.916183 
	-64.945486 86.953754 -67.008105 -93.799508 -31.464445 86.998809 -0.0077569604 -1.8583758 
	-67.008105 -93.799508 -64.94546 86.916183 -0.0077569604 -1.8583758 -31.464435 86.985961 
1.34 -31.400084 86.989397 -0.0078200021 -1.872229 -64.880564 86.931067 -66.94317 -93.827807 
	-0.0078200021 -1.872229 -31.400075 86.976452 -66.94317 -93.827807 -64.880537 86.893214 
	-64.880564 86.931067 -66.94317 -93.827807 -31.400084 86.989397 -0.0078200021 -1.872229 
	-66.94317 -93.827807 -64.880537 86.893214 -0.0078200021 -1.872229 -31.400075 86.976452 
1.35 -31.336201 86.979936 -0.0078833228 -1.8860817 -64.816127 86.908381 -66.87872 -93.856105 
	-0.0078833228 -1.8860817 -31.336191 86.966894 -66.87872 -93.856105 -64.816098 86.870247 
	-64.816127 86.908381 -66.87872 -93.856105 -31.336201 86.979936 -0.0078833228 -1.8860817 
	-66.87872 -93.856105 -64.816098 86.870247 -0.0078833228 -1.8860817 -31.336191 86.966894 
1.36 -31.272787 86.970426 -0.0079469234 -1.8999337 -64.752166 86.885695 -66.814746 -93.884402 
	-0.0079469234 -1.8999337 -31.272777 86.957287 -66.814746 -93.884402 -64.752137 86.84728 
	-64.752166 86.885695 -66.814746 -93.884402 -31.272787 86.970426 -0.0079469234 -1.8999337 
	-66.814746 -93.884402 -64.752137 86.84728 -0.0079469234 -1.8999337 -31.272777 86.957287 
1.37 -31.209837 86.960869 -0.0080108043 -1.9137851 -64.688677 86.863011 -66.751242 -93.912697 
	-0.0080108043 -1.9137851 -31.209827 86.947634 -66.751242 -93.912697 -64.688646 86.824315 
	-64.688677 86.863011 -66.751242 -93.912697 -31.209837 86.960869 -0.0080108043 -1.9137851 
	-66.751242 -93.912697 -64.688646 86.824315 -0.0080108043 -1.9137851 -31.209827 86.947634 
1.38 -31.147343 86.951266 -0.0080749662 -1.927636 -64.62565 86.840328 -66.688202 -93.940992 
	-0.0080749662 -1.927636 -31.147333 86.937934 -66.688202 -93.940992 -64.625619 86.80135 
	-64.62565 86.840328 -66.688202 -93.940992 -31.147343 86.951266 -0.0080749662 -1.927636 
	-66.688202 -93.940992 -64.625619 86.80135 -0.0080749662 -1.927636 -31.147333 86.937934 
1.39 -31.085298 86.941617 -0.0081394098 -1.9414863 -64.563081 86.817646 -66.625619 -93.969284 
	-0.0081394098 -1.9414863 -31.085289 86.928188 -66.625619 -93.969284 -64.563048 86.778387 
	-64.563081 86.817646 -66.625619 -93.969284 -31.085298 86.941617 -0.0081394098 -1.9414863 
	-66.625619 -93.969284 -64.563048 86.778387 -0.0081394098 -1.9414863 -31.085289 86.928188 
1.4 -31.023698 86.931924 -0.0082041356 -1.9553361 -64.500961 86.794965 -66.563485 -93.997576 
	-0.0082041356 -1.9553361 -31.023688 86.918398 -66.563485 -93.997576 -64.500928 86.755425 
	-64.500961 86.794965 -66.563485 -93.997576 -31.023698 86.931924 -0.0082041356 -1.9553361 
	-66.563485 -93.997576 -64.500928 86.755425 -0.0082041356 -1.9553361 -31.023688 86.918398 
1.41 -30.962534 86.922186 -0.0082691442 -1.9691852 -64.439286 86.772286 -66.501796 -94.025866 
	-0.0082691442 -1.9691852 -30.962524 86.908564 -66.501796 -94.025866 -64.439251 86.732463 
	-64.439286 86.772286 -66.501796 -94.025866 -30.962534 86.922186 -0.0082691442 -1.9691852 
	-66.501796 -94.025866 -64.439251 86.732463 -0.0082691442 -1.9691852 -30.962524 86.908564 
1.42 -30.901802 86.912406 -0.0083344362 -1.9830338 -64.378048 86.749607 -66.440543 -94.054156 
	-0.0083344362 -1.9830338 -30.901792 86.898686 -66.440543 -94.054156 -64.378013 86.709503 
	-64.378048 86.749607 -66.440543 -94.054156 -30.901802 86.912406 -0.0083344362 -1.9830338 
	-66.440543 -94.054156 -64.378013 86.709503 -0.0083344362 -1.9830338 -30.901792 86.898686 
1.43 -30.841494 86.902583 -0.0084000122 -1.9968819 -64.317242 86.726929 -66.379722 -94.082443 
	-0.0084000122 -1.9968819 -30.841484 86.888766 -66.379722 -94.082443 -64.317205 86.686544 
	-64.317242 86.726929 -66.379722 -94.082443 -30.841494 86.902583 -0.0084000122 -1.9968819 
	-66.379722 -94.082443 -64.317205 86.686544 -0.0084000122 -1.9968819 -30.841484 86.888766 
1.44 -30.781606 86.892718 -0.0084658728 -2.0107294 -64.256861 86.704252 -66.319327 -94.11073 
	-0.0084658728 -2.0107294 -30.781596 86.878805 -66.319327 -94.11073 -64.256823 86.663586 
	-64.256861 86.704252 -66.319327 -94.11073 -30.781606 86.892718 -0.0084658728 -2.0107294 
	-66.319327 -94.11073 -64.256823 86.663586 -0.0084658728 -2.0107294 -30.781596 86.878805 
1.45 -30.722131 86.882813 -0.0085320184 -2.0245763 -64.1969 86.681577 -66.25935 -94.139016 
	-0.0085320184 -2.0245763 -30.722121 86.868803 -66.25935 -94.139016 -64.196861 86.640629 
	-64.1969 86.681577 -66.25935 -94.139016 -30.722131 86.882813 -0.0085320184 -2.0245763 
	-66.25935 -94.139016 -64.196861 86.640629 -0.0085320184 -2.0245763 -30.722121 86.868803 
1.46 -30.663063 86.872867 -0.0085984497 -2.0384227 -64.137353 86.658902 -66.199788 -94.1673 
	-0.0085984497 -2.0384227 -30.663053 86.85876 -66.199788 -94.1673 -64.137313 86.617673 
	-64.137353 86.658902 -66.199788 -94.1673 -30.663063 86.872867 -0.0085984497 -2.0384227 
	-66.199788 -94.1673 -64.137313 86.617673 -0.0085984497 -2.0384227 -30.663053 86.85876 
1.47 -30.604398 86.862882 -0.0086651671 -2.0522686 -64.078214 86.636229 -66.140633 -94.195583 
	-0.0086651671 -2.0522686 -30.604388 86.848678 -66.140633 -94.195583 -64.078173 86.594718 
	-64.078214 86.636229 -66.140633 -94.195583 -30.604398 86.862882 -0.0086651671 -2.0522686 
	-66.140633 -94.195583 -64.078173 86.594718 -0.0086651671 -2.0522686 -30.604388 86.848678 
1.48 -30.54613 86.852859 -0.0087321713 -2.0661139 -64.019477 86.613556 -66.081881 -94.223865 
	-0.0087321713 -2.0661139 -30.546119 86.838558 -66.081881 -94.223865 -64.019435 86.571765 
	-64.019477 86.613556 -66.081881 -94.223865 -30.54613 86.852859 -0.0087321713 -2.0661139 
	-66.081881 -94.223865 -64.019435 86.571765 -0.0087321713 -2.0661139 -30.546119 86.838558 
1.49 -30.488252 86.842797 -0.0087994626 -2.0799586 -63.961138 86.590885 -66.023526 -94.252146 
	-0.0087994626 -2.0799586 -30.488242 86.828399 -66.023526 -94.252146 -63.961095 86.548812 
	-63.961138 86.590885 -66.023526 -94.252146 -30.488252 86.842797 -0.0087994626 -2.0799586 
	-66.023526 -94.252146 -63.961095 86.548812 -0.0087994626 -2.0799586 -30.488242 86.828399 
1.5 -30.430761 86.832697 -0.0088670416 -2.0938028 -63.903191 86.568214 -65.965563 -94.280425 
	-0.0088670416 -2.0938028 -30.430751 86.818203 -65.965563 -94.280425 -63.903147 86.52586 
	-63.903191 86.568214 -65.965563 -94.280425 -30.430761 86.832697 -0.0088670416 -2.0938028 
	-65.965563 -94.280425 -63.903147 86.52586 -0.0088670416 -2.0938028 -30.430751 86.818203 
1.51 -30.373651 86.822561 -0.0089349089 -2.1076465 -63.845631 86.545545 -65.907986 -94.308704 
	-0.0089349089 -2.1076465 -30.373641 86.80797 -65.907986 -94.308704 -63.845585 86.502909 
	-63.845631 86.545545 -65.907986 -94.308704 -30.373651 86.822561 -0.0089349089 -2.1076465 
	-65.907986 -94.308704 -63.845585 86.502909 -0.0089349089 -2.1076465 -30.373641 86.80797 
1.52 -30.316917 86.812389 -0.0090030648 -2.1214897 -63.788452 86.522877 -65.850791 -94.336981 
	-0.0090030648 -2.1214897 -30.316907 86.7977 -65.850791 -94.336981 -63.788405 86.47996 
	-63.788452 86.522877 -65.850791 -94.336981 -30.316917 86.812389 -0.0090030648 -2.1214897 
	-65.850791 -94.336981 -63.788405 86.47996 -0.0090030648 -2.1214897 -30.316907 86.7977 
1.53 -30.260555 86.802181 -0.0090715099 -2.1353323 -63.73165 86.500209 -65.793973 -94.365257 
	-0.0090715099 -2.1353323 -30.260544 86.787395 -65.793973 -94.365257 -63.731602 86.457011 
	-63.73165 86.500209 -65.793973 -94.365257 -30.260555 86.802181 -0.0090715099 -2.1353323 
	-65.793973 -94.365257 -63.731602 86.457011 -0.0090715099 -2.1353323 -30.260544 86.787395 
1.54 -30.204558 86.791938 -0.0091402446 -2.1491744 -63.67522 86.477543 -65.737526 -94.393532 
	-0.0091402446 -2.1491744 -30.204548 86.777056 -65.737526 -94.393532 -63.675171 86.434063 
	-63.67522 86.477543 -65.737526 -94.393532 -30.204558 86.791938 -0.0091402446 -2.1491744 
	-65.737526 -94.393532 -63.675171 86.434063 -0.0091402446 -2.1491744 -30.204548 86.777056 
1.55 -30.148923 86.78166 -0.0092092694 -2.1630159 -63.619157 86.454878 -65.681446 -94.421806 
	-0.0092092694 -2.1630159 -30.148913 86.766681 -65.681446 -94.421806 -63.619106 86.411117 
	-63.619157 86.454878 -65.681446 -94.421806 -30.148923 86.78166 -0.0092092694 -2.1630159 
	-65.681446 -94.421806 -63.619106 86.411117 -0.0092092694 -2.1630159 -30.148913 86.766681 
1.56 -30.093645 86.771349 -0.0092785847 -2.176857 -63.563456 86.432213 -65.625728 -94.450078 
	-0.0092785847 -2.176857 -30.093635 86.756273 -65.625728 -94.450078 -63.563404 86.388171 
	-63.563456 86.432213 -65.625728 -94.450078 -30.093645 86.771349 -0.0092785847 -2.176857 
	-65.625728 -94.450078 -63.563404 86.388171 -0.0092785847 -2.176857 -30.093635 86.756273 
1.57 -30.03872 86.761004 -0.0093481911 -2.1906975 -63.508113 86.40955 -65.570367 -94.47835 
	-0.0093481911 -2.1906975 -30.038709 86.745831 -65.570367 -94.47835 -63.50806 86.365226 
	-63.508113 86.40955 -65.570367 -94.47835 -30.03872 86.761004 -0.0093481911 -2.1906975 
	-65.570367 -94.47835 -63.50806 86.365226 -0.0093481911 -2.1906975 -30.038709 86.745831 
1.58 -29.984142 86.750627 -0.0094180889 -2.2045375 -63.453122 86.386887 -65.515359 -94.50662 
	-0.0094180889 -2.2045375 -29.984132 86.735357 -65.515359 -94.50662 -63.453068 86.342282 
	-63.453122 86.386887 -65.515359 -94.50662 -29.984142 86.750627 -0.0094180888 -2.2045375 
	-65.515359 -94.50662 -63.453068 86.342282 -0.0094180888 -2.2045375 -29.984132 86.735357 
1.59 -29.929908 86.740217 -0.0094882785 -2.218377 -63.398481 86.364226 -65.4607 -94.534889 
	-0.0094882785 -2.218377 -29.929898 86.724851 -65.4607 -94.534889 -63.398425 86.31934 
	-63.398481 86.364226 -65.4607 -94.534889 -29.929908 86.740217 -0.0094882785 -2.218377 
	-65.4607 -94.534889 -63.398425 86.31934 -0.0094882785 -2.218377 -29.929898 86.724851 
1.6 -29.876014 86.729776 -0.0095587604 -2.2322159 -63.344184 86.341566 -65.406385 -94.563158 
	-0.0095587604 -2.2322159 -29.876003 86.714312 -65.406385 -94.563158 -63.344127 86.296398 
	-63.344184 86.341566 -65.406385 -94.563158 -29.876014 86.729776 -0.0095587604 -2.2322159 
	-65.406385 -94.563158 -63.344127 86.296398 -0.0095587604 -2.2322159 -29.876003 86.714312 
1.61 -29.822454 86.719303 -0.009629535 -2.2460544 -63.290226 86.318906 -65.35241 -94.591425 
	-0.009629535 -2.2460544 -29.822444 86.703743 -65.35241 -94.591425 -63.290169 86.273457 
	-63.290226 86.318906 -65.35241 -94.591425 -29.822454 86.719303 -0.009629535 -2.2460544 
	-65.35241 -94.591425 -63.290169 86.273457 -0.009629535 -2.2460544 -29.822444 86.703743 
1.62 -29.769226 86.7088 -0.0097006028 -2.2598923 -63.236605 86.296248 -65.298771 -94.619691 
	-0.0097006028 -2.2598923 -29.769215 86.693143 -65.298771 -94.619691 -63.236546 86.250518 
	-63.236605 86.296248 -65.298771 -94.619691 -29.769226 86.7088 -0.0097006028 -2.2598923 
	-65.298771 -94.619691 -63.236546 86.250518 -0.0097006028 -2.2598923 -29.769215 86.693143 
1.63 -29.716324 86.698266 -0.009771964 -2.2737297 -63.183316 86.27359 -65.245463 -94.647955 
	-0.009771964 -2.2737297 -29.716314 86.682512 -65.245463 -94.647955 -63.183255 86.227579 
	-63.183316 86.27359 -65.245463 -94.647955 -29.716324 86.698266 -0.009771964 -2.2737297 
	-65.245463 -94.647955 -63.183255 86.227579 -0.009771964 -2.2737297 -29.716314 86.682512 
1.64 -29.663745 86.687703 -0.0098436191 -2.2875667 -63.130354 86.250934 -65.192482 -94.676219 
	-0.0098436191 -2.2875667 -29.663735 86.671852 -65.192482 -94.676219 -63.130292 86.204641 
	-63.130354 86.250934 -65.192482 -94.676219 -29.663745 86.687703 -0.0098436191 -2.2875667 
	-65.192482 -94.676219 -63.130292 86.204641 -0.0098436191 -2.2875667 -29.663735 86.671852 
1.65 -29.611486 86.67711 -0.0099155686 -2.3014031 -63.077715 86.228279 -65.139825 -94.704482 
	-0.0099155686 -2.3014031 -29.611475 86.661163 -65.139825 -94.704482 -63.077652 86.181704 
	-63.077715 86.228279 -65.139825 -94.704482 -29.611486 86.67711 -0.0099155686 -2.3014031 
	-65.139825 -94.704482 -63.077652 86.181704 -0.0099155686 -2.3014031 -29.611475 86.661163 
1.66 -29.559541 86.666489 -0.0099878127 -2.315239 -63.025397 86.205624 -65.087488 -94.732743 
	-0.0099878127 -2.315239 -29.559531 86.650444 -65.087488 -94.732743 -63.025333 86.158768 
	-63.025397 86.205624 -65.087488 -94.732743 -29.559541 86.666489 -0.0099878127 -2.315239 
	-65.087488 -94.732743 -63.025333 86.158768 -0.0099878127 -2.315239 -29.559531 86.650444 
1.67 -29.507908 86.655839 -0.010060352 -2.3290744 -62.973394 86.18297 -65.035466 -94.761003 
	-0.010060352 -2.3290744 -29.507898 86.639697 -65.035466 -94.761003 -62.973329 86.135833 
	-62.973394 86.18297 -65.035466 -94.761003 -29.507908 86.655839 -0.010060352 -2.3290744 
	-65.035466 -94.761003 -62.973329 86.135833 -0.010060352 -2.3290744 -29.507898 86.639697 
1.68 -29.456583 86.645161 -0.010133187 -2.3429093 -62.921704 86.160318 -64.983757 -94.789263 
	-0.010133187 -2.3429093 -29.456572 86.628923 -64.983757 -94.789263 -62.921637 86.112899 
	-62.921704 86.160318 -64.983757 -94.789263 -29.456583 86.645161 -0.010133187 -2.3429093 
	-64.983757 -94.789263 -62.921637 86.112899 -0.010133187 -2.3429093 -29.456572 86.628923 
1.69 -29.405562 86.634455 -0.010206317 -2.3567437 -62.870322 86.137666 -64.932355 -94.817521 
	-0.010206317 -2.3567437 -29.405551 86.61812 -64.932355 -94.817521 -62.870254 86.089966 
	-62.870322 86.137666 -64.932355 -94.817521 -29.405562 86.634455 -0.010206317 -2.3567437 
	-64.932355 -94.817521 -62.870254 86.089966 -0.010206317 -2.3567437 -29.405551 86.61812 
1.7 -29.354841 86.623723 -0.010279744 -2.3705776 -62.819245 86.115015 -64.881259 -94.845778 
	-0.010279744 -2.3705776 -29.35483 86.607291 -64.881259 -94.845778 -62.819176 86.067034 
	-62.819245 86.115015 -64.881259 -94.845778 -29.354841 86.623723 -0.010279744 -2.3705776 
	-64.881259 -94.845778 -62.819176 86.067034 -0.010279744 -2.3705776 -29.35483 86.607291 
1.71 -29.304417 86.612963 -0.010353467 -2.3844111 -62.768469 86.092366 -64.830463 -94.874034 
	-0.010353467 -2.3844111 -29.304406 86.596435 -64.830463 -94.874034 -62.768399 86.044103 
	-62.768469 86.092366 -64.830463 -94.874034 -29.304417 86.612963 -0.010353467 -2.3844111 
	-64.830463 -94.874034 -62.768399 86.044103 -0.010353467 -2.3844111 -29.304406 86.596435 
1.72 -29.254287 86.602178 -0.010427487 -2.398244 -62.717992 86.069717 -64.779965 -94.902289 
	-0.010427487 -2.398244 -29.254276 86.585552 -64.779965 -94.902289 -62.717919 86.021173 
	-62.717992 86.069717 -64.779965 -94.902289 -29.254287 86.602178 -0.010427487 -2.398244 
	-64.779965 -94.902289 -62.717919 86.021173 -0.010427487 -2.398244 -29.254276 86.585552 
1.73 -29.204447 86.591366 -0.010501804 -2.4120764 -62.667808 86.047069 -64.729762 -94.930543 
	-0.010501804 -2.4120764 -29.204436 86.574643 -64.729762 -94.930543 -62.667735 85.998244 
	-62.667808 86.047069 -64.729762 -94.930543 -29.204447 86.591366 -0.010501804 -2.4120764 
	-64.729762 -94.930543 -62.667735 85.998244 -0.010501804 -2.4120764 -29.204436 86.574643 
1.74 -29.154894 86.580529 -0.010576418 -2.4259084 -62.617915 86.024422 -64.679849 -94.958796 
	-0.010576418 -2.4259084 -29.154883 86.563709 -64.679849 -94.958796 -62.617841 85.975316 
	-62.617915 86.024422 -64.679849 -94.958796 -29.154894 86.580529 -0.010576418 -2.4259084 
	-64.679849 -94.958796 -62.617841 85.975316 -0.010576418 -2.4259084 -29.154883 86.563709 
1.75 -29.105624 86.569667 -0.010651331 -2.4397398 -62.568311 86.001776 -64.630223 -94.987048 
	-0.010651331 -2.4397398 -29.105613 86.55275 -64.630223 -94.987048 -62.568234 85.952389 
	-62.568311 86.001776 -64.630223 -94.987048 -29.105624 86.569667 -0.010651331 -2.4397398 
	-64.630223 -94.987048 -62.568234 85.952389 -0.010651331 -2.4397398 -29.105613 86.55275 
1.76 -29.056635 86.558779 -0.010726542 -2.4535708 -62.51899 85.979131 -64.580882 -95.015299 
	-0.010726542 -2.4535708 -29.056624 86.541766 -64.580882 -95.015299 -62.518912 85.929462 
	-62.51899 85.979131 -64.580882 -95.015299 -29.056635 86.558779 -0.010726542 -2.4535708 
	-64.580882 -95.015299 -62.518912 85.929462 -0.010726542 -2.4535708 -29.056624 86.541766 
1.77 -29.007923 86.547868 -0.010802051 -2.4674013 -62.469951 85.956487 -64.531822 -95.043549 
	-0.010802051 -2.4674013 -29.007912 86.530758 -64.531822 -95.043549 -62.469871 85.906537 
	-62.469951 85.956487 -64.531822 -95.043549 -29.007923 86.547868 -0.010802051 -2.4674013 
	-64.531822 -95.043549 -62.469871 85.906537 -0.010802051 -2.4674013 -29.007912 86.530758 
1.78 -28.959485 86.536932 -0.010877859 -2.4812313 -62.421189 85.933844 -64.483039 -95.071797 
	-0.010877859 -2.4812313 -28.959474 86.519725 -64.483039 -95.071797 -62.421109 85.883613 
	-62.421189 85.933844 -64.483039 -95.071797 -28.959485 86.536932 -0.010877859 -2.4812313 
	-64.483039 -95.071797 -62.421109 85.883613 -0.010877859 -2.4812313 -28.959474 86.519725 
1.79 -28.911318 86.525973 -0.010953966 -2.4950608 -62.372703 85.911202 -64.434532 -95.100045 
	-0.010953966 -2.4950608 -28.911306 86.508669 -64.434532 -95.100045 -62.372621 85.860689 
	-62.372703 85.911202 -64.434532 -95.100045 -28.911318 86.525973 -0.010953966 -2.4950608 
	-64.434532 -95.100045 -62.372621 85.860689 -0.010953966 -2.4950608 -28.911306 86.508669 
1.8 -28.863419 86.51499 -0.011030373 -2.5088898 -62.324488 85.888561 -64.386296 -95.128291 
	-0.011030373 -2.5088898 -28.863407 86.497589 -64.386296 -95.128291 -62.324405 85.837766 
	-62.324488 85.888561 -64.386296 -95.128291 -28.863419 86.51499 -0.011030373 -2.5088898 
	-64.386296 -95.128291 -62.324405 85.837766 -0.011030373 -2.5088898 -28.863407 86.497589 
1.81 -28.815785 86.503984 -0.01110708 -2.5227183 -62.276542 85.86592 -64.338328 -95.156537 
	-0.01110708 -2.5227183 -28.815773 86.486486 -64.338328 -95.156537 -62.276457 85.814845 
	-62.276542 85.86592 -64.338328 -95.156537 -28.815785 86.503984 -0.01110708 -2.5227183 
	-64.338328 -95.156537 -62.276457 85.814845 -0.01110708 -2.5227183 -28.815773 86.486486 
1.82 -28.768413 86.492955 -0.011184086 -2.5365464 -62.228862 85.843281 -64.290626 -95.184782 
	-0.011184086 -2.5365464 -28.768402 86.475361 -64.290626 -95.184782 -62.228776 85.791924 
	-62.228862 85.843281 -64.290626 -95.184782 -28.768413 86.492955 -0.011184086 -2.5365464 
	-64.290626 -95.184782 -62.228776 85.791924 -0.011184086 -2.5365464 -28.768402 86.475361 
1.83 -28.7213 86.481904 -0.011261393 -2.550374 -62.181445 85.820642 -64.243188 -95.213025 
	-0.011261393 -2.550374 -28.721289 86.464213 -64.243188 -95.213025 -62.181357 85.769004 
	-62.181445 85.820642 -64.243188 -95.213025 -28.7213 86.481904 -0.011261393 -2.550374 
	-64.243188 -95.213025 -62.181357 85.769004 -0.011261393 -2.550374 -28.721289 86.464213 
1.84 -28.674444 86.470831 -0.011339001 -2.5642011 -62.134288 85.798005 -64.196009 -95.241268 
	-0.011339001 -2.5642011 -28.674433 86.453042 -64.196009 -95.241268 -62.134199 85.746085 
	-62.134288 85.798005 -64.196009 -95.241268 -28.674444 86.470831 -0.011339001 -2.5642011 
	-64.196009 -95.241268 -62.134199 85.746085 -0.011339001 -2.5642011 -28.674433 86.453042 
1.85 -28.627842 86.459736 -0.011416909 -2.5780278 -62.087389 85.775368 -64.149087 -95.269509 
	-0.011416909 -2.5780278 -28.62783 86.44185 -64.149087 -95.269509 -62.087298 85.723167 
	-62.087389 85.775368 -64.149087 -95.269509 -28.627842 86.459736 -0.011416909 -2.5780278 
	-64.149087 -95.269509 -62.087298 85.723167 -0.011416909 -2.5780278 -28.62783 86.44185 
1.86 -28.58149 86.448619 -0.011495119 -2.5918539 -62.040744 85.752733 -64.102419 -95.297749 
	-0.011495119 -2.5918539 -28.581479 86.430637 -64.102419 -95.297749 -62.040652 85.70025 
	-62.040744 85.752733 -64.102419 -95.297749 -28.58149 86.448619 -0.011495119 -2.5918539 
	-64.102419 -95.297749 -62.040652 85.70025 -0.011495119 -2.5918539 -28.581479 86.430637 
1.87 -28.535387 86.437481 -0.01157363 -2.6056796 -61.99435 85.730098 -64.056003 -95.325989 
	-0.01157363 -2.6056796 -28.535376 86.419402 -64.056003 -95.325989 -61.994257 85.677334 
	-61.99435 85.730098 -64.056003 -95.325989 -28.535387 86.437481 -0.01157363 -2.6056796 
	-64.056003 -95.325989 -61.994257 85.677334 -0.01157363 -2.6056796 -28.535376 86.419402 
1.88 -28.48953 86.426322 -0.011652443 -2.6195048 -61.948206 85.707464 -64.009837 -95.354227 
	-0.011652443 -2.6195048 -28.489518 86.408147 -64.009837 -95.354227 -61.948111 85.654419 
	-61.948206 85.707464 -64.009837 -95.354227 -28.48953 86.426322 -0.011652443 -2.6195048 
	-64.009837 -95.354227 -61.948111 85.654419 -0.011652443 -2.6195048 -28.489518 86.408147 
1.89 -28.443915 86.415143 -0.011731557 -2.6333296 -61.902309 85.684831 -63.963916 -95.382464 
	-0.011731557 -2.6333296 -28.443904 86.39687 -63.963916 -95.382464 -61.902212 85.631505 
	-61.902309 85.684831 -63.963916 -95.382464 -28.443915 86.415143 -0.011731557 -2.6333296 
	-63.963916 -95.382464 -61.902212 85.631505 -0.011731557 -2.6333296 -28.443904 86.39687 
1.9 -28.398541 86.403943 -0.011810975 -2.6471539 -61.856655 85.662199 -63.918239 -95.410701 
	-0.011810975 -2.6471539 -28.39853 86.385574 -63.918239 -95.410701 -61.856557 85.608591 
	-61.856655 85.662199 -63.918239 -95.410701 -28.398541 86.403943 -0.011810975 -2.6471539 
	-63.918239 -95.410701 -61.856557 85.608591 -0.011810975 -2.6471539 -28.39853 86.385574 
1.91 -28.353406 86.392724 -0.011890694 -2.6609777 -61.811243 85.639568 -63.872804 -95.438936 
	-0.011890694 -2.6609777 -28.353394 86.374257 -63.872804 -95.438936 -61.811143 85.585679 
	-61.811243 85.639568 -63.872804 -95.438936 -28.353406 86.392724 -0.011890694 -2.6609777 
	-63.872804 -95.438936 -61.811143 85.585679 -0.011890694 -2.6609777 -28.353394 86.374257 
1.92 -28.308505 86.381484 -0.011970717 -2.674801 -61.766069 85.616938 -63.827607 -95.467171 
	-0.011970717 -2.674801 -28.308494 86.362921 -63.827607 -95.467171 -61.765968 85.562768 
	-61.766069 85.616938 -63.827607 -95.467171 -28.308505 86.381484 -0.011970717 -2.674801 
	-63.827607 -95.467171 -61.765968 85.562768 -0.011970717 -2.674801 -28.308494 86.362921 
1.93 -28.263838 86.370225 -0.012051042 -2.6886239 -61.721132 85.594308 -63.782646 -95.495404 
	-0.012051042 -2.6886239 -28.263827 86.351565 -63.782646 -95.495404 -61.72103 85.539857 
	-61.721132 85.594308 -63.782646 -95.495404 -28.263838 86.370225 -0.012051042 -2.6886239 
	-63.782646 -95.495404 -61.72103 85.539857 -0.012051042 -2.6886239 -28.263827 86.351565 
1.94 -28.219402 86.358946 -0.012131671 -2.7024463 -61.676429 85.57168 -63.737919 -95.523636 
	-0.012131671 -2.7024463 -28.21939 86.340189 -63.737919 -95.523636 -61.676325 85.516947 
	-61.676429 85.57168 -63.737919 -95.523636 -28.219402 86.358946 -0.012131671 -2.7024463 
	-63.737919 -95.523636 -61.676325 85.516947 -0.012131671 -2.7024463 -28.21939 86.340189 
1.95 -28.175193 86.347649 -0.012212604 -2.7162682 -61.631958 85.549052 -63.693424 -95.551867 
	-0.012212604 -2.7162682 -28.175182 86.328795 -63.693424 -95.551867 -61.631852 85.494038 
	-61.631958 85.549052 -63.693424 -95.551867 -28.175193 86.347649 -0.012212604 -2.7162682 
	-63.693424 -95.551867 -61.631852 85.494038 -0.012212604 -2.7162682 -28.175182 86.328795 
1.96 -28.131211 86.336333 -0.01229384 -2.7300897 -61.587715 85.526426 -63.649157 -95.580098 
	-0.01229384 -2.7300897 -28.1312 86.317382 -63.649157 -95.580098 -61.587608 85.471131 
	-61.587715 85.526426 -63.649157 -95.580098 -28.131211 86.336333 -0.01229384 -2.7300897 
	-63.649157 -95.580098 -61.587608 85.471131 -0.01229384 -2.7300897 -28.1312 86.317382 
1.97 -28.087453 86.324998 -0.01237538 -2.7439107 -61.5437 85.5038 -63.605117 -95.608327 
	-0.01237538 -2.7439107 -28.087441 86.30595 -63.605117 -95.608327 -61.543591 85.448224 
	-61.5437 85.5038 -63.605117 -95.608327 -28.087453 86.324998 -0.01237538 -2.7439107 
	-63.605117 -95.608327 -61.543591 85.448224 -0.01237538 -2.7439107 -28.087441 86.30595 
1.98 -28.043916 86.313645 -0.012457224 -2.7577313 -61.499909 85.481175 -63.561302 -95.636555 
	-0.012457224 -2.7577313 -28.043904 86.2945 -63.561302 -95.636555 -61.499798 85.425317 
	-61.499909 85.481175 -63.561302 -95.636555 -28.043916 86.313645 -0.012457225 -2.7577313 
	-63.561302 -95.636555 -61.499798 85.425317 -0.012457225 -2.7577313 -28.043904 86.2945 
1.99 -28.000598 86.302273 -0.012539373 -2.7715513 -61.45634 85.458552 -63.517708 -95.664783 
	-0.012539373 -2.7715513 -28.000586 86.283032 -63.517708 -95.664783 -61.456228 85.402412 
	-61.45634 85.458552 -63.517708 -95.664783 -28.000598 86.302273 -0.012539373 -2.7715513 
	-63.517708 -95.664783 -61.456228 85.402412 -0.012539373 -2.7715513 -28.000586 86.283032 
2 -27.957497 86.290884 -0.012621827 -2.785371 -61.412991 85.435929 -63.474335 -95.693009 
	-0.012621827 -2.785371 -27.957485 86.271546 -63.474335 -95.693009 -61.412878 85.379508 
	-61.412991 85.435929 -63.474335 -95.693009 -27.957497 86.290884 -0.012621827 -2.785371 
	-63.474335 -95.693009 -61.412878 85.379508 -0.012621827 -2.785371 -27.957485 86.271546 
2.1 -27.537969 86.176063 -0.013463172 -2.923542 -60.991145 85.209748 -63.052231 -95.975218 
	-0.013463172 -2.923542 -27.537957 86.155756 -63.052231 -95.975218 -60.991015 85.150515 
	-60.991145 85.209748 -63.052231 -95.975218 -27.537969 86.176063 -0.013463172 -2.923542 
	-63.052231 -95.975218 -60.991015 85.150515 -0.013463172 -2.923542 -27.537957 86.155756 
2.2 -27.137964 86.059688 -0.014335216 -3.0616675 -60.589093 84.983657 -62.649904 -96.257331 
	-0.014335216 -3.0616675 -27.137952 86.038412 -62.649904 -96.257331 -60.588946 84.92161 
	-60.589093 84.983657 -62.649904 -96.257331 -27.137964 86.059688 -0.014335216 -3.0616675 
	-62.649904 -96.257331 -60.588946 84.92161 -0.014335216 -3.0616675 -27.137952 86.038412 
2.3 -26.755753 85.941937 -0.015238143 -3.1997481 -60.205082 84.757655 -62.2656 -96.539347 
	-0.015238143 -3.1997481 -26.755741 85.919691 -62.2656 -96.539347 -60.204916 84.692795 
	-60.205082 84.757655 -62.2656 -96.539347 -26.755753 85.941937 -0.015238143 -3.1997481 
	-62.2656 -96.539347 -60.204916 84.692795 -0.015238143 -3.1997481 -26.755741 85.919691 
2.4 -26.389829 85.82296 -0.016172109 -3.3377841 -59.837582 84.531741 -61.897792 -96.821268 
	-0.016172109 -3.3377841 -26.389816 85.799745 -61.897792 -96.821268 -59.837397 84.464067 
	-59.837582 84.531741 -61.897792 -96.821268 -26.389829 85.82296 -0.016172109 -3.3377841 
	-61.897792 -96.821268 -59.837397 84.464067 -0.016172109 -3.3377841 -26.389816 85.799745 
2.5 -26.038868 85.702886 -0.017137253 -3.4757755 -59.485252 84.305916 -61.545136 -97.103094 
	-0.017137253 -3.4757755 -26.038855 85.678703 -61.545136 -97.103094 -59.485047 84.235428 
	-59.485252 84.305916 -61.545136 -97.103094 -26.038868 85.702886 -0.017137253 -3.4757755 
	-61.545136 -97.103094 -59.485047 84.235428 -0.017137253 -3.4757755 -26.038855 85.678703 
2.6 -25.701702 85.581829 -0.018133695 -3.6137225 -59.146908 84.080179 -61.206448 -97.384826 
	-0.018133695 -3.6137225 -25.701689 85.556676 -61.206448 -97.384826 -59.146682 84.006878 
	-59.146908 84.080179 -61.206448 -97.384826 -25.701702 85.581829 -0.018133695 -3.6137225 
	-61.206448 -97.384826 -59.146682 84.006878 -0.018133695 -3.6137225 -25.701689 85.556676 
2.7 -25.377295 85.459883 -0.019161542 -3.7516251 -58.821499 83.854531 -60.88068 -97.666464 
	-0.019161542 -3.7516251 -25.377281 85.433761 -60.88068 -97.666464 -58.821251 83.778416 
	-58.821499 83.854531 -60.88068 -97.666464 -25.377295 85.459883 -0.019161542 -3.7516251 
	-60.88068 -97.666464 -58.821251 83.778416 -0.019161542 -3.7516251 -25.377281 85.433761 
2.8 -25.064723 85.337135 -0.020220884 -3.8894831 -58.50809 83.628972 -60.566896 -97.948008 
	-0.020220884 -3.8894831 -25.064709 85.310044 -60.566896 -97.948008 -58.507819 83.550043 
	-58.50809 83.628972 -60.566896 -97.948008 -25.064723 85.337135 -0.020220884 -3.8894831 
	-60.566896 -97.948008 -58.507819 83.550043 -0.020220884 -3.8894831 -25.064709 85.310044 
2.9 -24.763161 85.213659 -0.021311803 -4.0272964 -58.205845 83.403503 -60.264258 -98.229458 
	-0.021311803 -4.0272964 -24.763147 85.185598 -60.264258 -98.229458 -58.20555 83.321761 
	-58.205845 83.403503 -60.264258 -98.229458 -24.763161 85.213659 -0.021311803 -4.0272964 
	-60.264258 -98.229458 -58.20555 83.321761 -0.021311803 -4.0272964 -24.763147 85.185598 
2.95 -24.616273 85.151668 -0.021869127 -4.0961862 -58.058671 83.290803 -60.116881 -98.370147 
	-0.021869127 -4.0961862 -24.616259 85.123123 -60.116881 -98.370147 -58.058364 83.207653 
	-58.058671 83.290803 -60.116881 -98.370147 -24.616273 85.151668 -0.021869127 -4.0961862 
	-60.116881 -98.370147 -58.058364 83.207653 -0.021869127 -4.0961862 -24.616259 85.123123 
3 -24.471865 85.08952 -0.02243437 -4.1650646 -57.914011 83.178126 -59.972015 -98.510813 
	-0.02243437 -4.1650646 -24.471851 85.06049 -59.972015 -98.510813 -57.913692 83.093568 
	-57.914011 83.178126 -59.972015 -98.510813 -24.471865 85.08952 -0.022434369 -4.1650646 
	-59.972015 -98.510813 -57.913692 83.093568 -0.022434369 -4.1650646 -24.471851 85.06049 
3.05 -24.329856 85.027221 -0.023007539 -4.2339318 -57.771785 83.065471 -59.829578 -98.651454 
	-0.023007539 -4.2339318 -24.329842 84.997706 -59.829578 -98.651454 -57.771453 82.979507 
	-57.771785 83.065471 -59.829578 -98.651454 -24.329856 85.027221 -0.023007539 -4.2339318 
	-59.829578 -98.651454 -57.771453 82.979507 -0.023007539 -4.2339318 -24.329842 84.997706 
3.1 -24.190168 84.964777 -0.023588643 -4.3027875 -57.631912 82.95284 -59.68949 -98.792072 
	-0.023588643 -4.3027875 -24.190153 84.934777 -59.68949 -98.792072 -57.631567 82.865468 
	-57.631912 82.95284 -59.68949 -98.792072 -24.190168 84.964777 -0.023588643 -4.3027875 
	-59.68949 -98.792072 -57.631567 82.865468 -0.023588643 -4.3027875 -24.190153 84.934777 
3.15 -24.052726 84.902195 -0.024177687 -4.3716318 -57.494318 82.840231 -59.551678 -98.932666 
	-0.024177687 -4.3716318 -24.052712 84.871711 -59.551678 -98.932666 -57.493961 82.751452 
	-57.494318 82.840231 -59.551678 -98.932666 -24.052726 84.902195 -0.024177687 -4.3716318 
	-59.551678 -98.932666 -57.493961 82.751452 -0.024177687 -4.3716318 -24.052712 84.871711 
3.2 -23.917462 84.839482 -0.024774677 -4.4404647 -57.358933 82.727646 -59.41607 -99.073236 
	-0.024774677 -4.4404647 -23.917447 84.808513 -59.41607 -99.073236 -57.358562 82.63746 
	-57.358933 82.727646 -59.41607 -99.073236 -23.917462 84.839482 -0.024774677 -4.4404647 
	-59.41607 -99.073236 -57.358562 82.63746 -0.024774677 -4.4404647 -23.917447 84.808513 
3.25 -23.784307 84.776642 -0.025379618 -4.509286 -57.225688 82.615085 -59.282598 -99.213781 
	-0.025379618 -4.509286 -23.784292 84.745188 -59.282598 -99.213781 -57.225304 82.52349 
	-57.225688 82.615085 -59.282598 -99.213781 -23.784307 84.776642 -0.025379618 -4.509286 
	-59.282598 -99.213781 -57.225304 82.52349 -0.025379618 -4.509286 -23.784292 84.745188 
3.3 -23.653198 84.713681 -0.025992515 -4.5780957 -57.094519 82.502547 -59.151197 -99.354303 
	-0.025992515 -4.5780957 -23.653183 84.681743 -59.151197 -99.354303 -57.094121 82.409545 
	-57.094519 82.502547 -59.151197 -99.354303 -23.653198 84.713681 -0.025992515 -4.5780957 
	-59.151197 -99.354303 -57.094121 82.409545 -0.025992515 -4.5780957 -23.653183 84.681743 
3.35 -23.524073 84.650604 -0.026613373 -4.6468938 -56.965363 82.390032 -59.021806 -99.4948 
	-0.026613373 -4.6468938 -23.524058 84.618181 -59.021806 -99.4948 -56.964951 82.295623 
	-56.965363 82.390032 -59.021806 -99.4948 -23.524073 84.650604 -0.026613373 -4.6468938 
	-59.021806 -99.4948 -56.964951 82.295623 -0.026613373 -4.6468938 -23.524058 84.618181 
3.4 -23.396874 84.587416 -0.027242196 -4.7156802 -56.838162 82.277542 -58.894366 -99.635272 
	-0.027242196 -4.7156802 -23.396859 84.554508 -58.894366 -99.635272 -56.837736 82.181725 
	-56.838162 82.277542 -58.894366 -99.635272 -23.396874 84.587416 -0.027242196 -4.7156802 
	-58.894366 -99.635272 -56.837736 82.181725 -0.027242196 -4.7156802 -23.396859 84.554508 
3.45 -23.271546 84.524121 -0.027878987 -4.7844548 -56.712859 82.165075 -58.76882 -99.77572 
	-0.027878987 -4.7844548 -23.271531 84.490729 -58.76882 -99.77572 -56.712418 82.06785 
	-56.712859 82.165075 -58.76882 -99.77572 -23.271546 84.524121 -0.027878987 -4.7844548 
	-58.76882 -99.77572 -56.712418 82.06785 -0.027878987 -4.7844548 -23.271531 84.490729 
3.5 -23.148035 84.460724 -0.028523751 -4.8532175 -56.5894 82.052633 -58.645113 -99.916143 
	-0.028523751 -4.8532175 -23.14802 84.426847 -58.645113 -99.916143 -56.588945 81.954 
	-56.5894 82.052633 -58.645113 -99.916143 -23.148035 84.460724 -0.028523751 -4.8532175 
	-58.645113 -99.916143 -56.588945 81.954 -0.028523751 -4.8532175 -23.14802 84.426847 
3.55 -23.026289 84.397229 -0.02917649 -4.9219684 -56.467733 81.940215 -58.523195 -100.05654 
	-0.02917649 -4.9219684 -23.026274 84.362867 -58.523195 -100.05654 -56.467263 81.840174 
	-56.467733 81.940215 -58.523195 -100.05654 -23.026289 84.397229 -0.02917649 -4.9219684 
	-58.523195 -100.05654 -56.467263 81.840174 -0.02917649 -4.9219684 -23.026274 84.362867 
3.6 -22.906261 84.33364 -0.029837207 -4.9907073 -56.347809 81.827821 -58.403016 -100.19691 
	-0.029837207 -4.9907073 -22.906245 84.298793 -58.403016 -100.19691 -56.347324 81.726372 
	-56.347809 81.827821 -58.403016 -100.19691 -22.906261 84.33364 -0.029837207 -4.9907073 
	-58.403016 -100.19691 -56.347324 81.726372 -0.029837207 -4.9907073 -22.906245 84.298793 
3.65 -22.787901 84.269961 -0.030505904 -5.0594341 -56.22958 81.715452 -58.284527 -100.33726 
	-0.030505904 -5.0594341 -22.787886 84.234629 -58.284527 -100.33726 -56.22908 81.612595 
	-56.22958 81.715452 -58.284527 -100.33726 -22.787901 84.269961 -0.030505904 -5.0594341 
	-58.284527 -100.33726 -56.22908 81.612595 -0.030505904 -5.0594341 -22.787886 84.234629 
3.7 -22.671167 84.206194 -0.031182584 -5.1281489 -56.113001 81.603108 -58.167684 -100.47759 
	-0.031182584 -5.1281489 -22.671151 84.170377 -58.167684 -100.47759 -56.112485 81.498843 
	-56.113001 81.603108 -58.167684 -100.47759 -22.671167 84.206194 -0.031182584 -5.1281489 
	-58.167684 -100.47759 -56.112485 81.498843 -0.031182584 -5.1281489 -22.671151 84.170377 
3.8 -22.4424 84.078414 -0.032559898 -5.2655417 -55.884618 81.378495 -57.938762 -100.75815 
	-0.032559898 -5.2655417 -22.442384 84.041628 -57.938762 -100.75815 -55.88407 81.271413 
	-55.884618 81.378495 -57.938762 -100.75815 -22.4424 84.078414 -0.032559898 -5.2655417 
	-57.938762 -100.75815 -55.88407 81.271413 -0.032559898 -5.2655417 -22.442384 84.041628 
3.9 -22.219634 83.950325 -0.033969162 -5.4028852 -55.66233 81.153983 -57.715919 -101.03862 
	-0.033969162 -5.4028852 -22.219618 83.912569 -57.715919 -101.03862 -55.66175 81.044084 
	-55.66233 81.153983 -57.715919 -101.03862 -22.219634 83.950325 -0.033969162 -5.4028852 
	-57.715919 -101.03862 -55.66175 81.044084 -0.033969162 -5.4028852 -22.219618 83.912569 
4 -22.002567 83.821951 -0.035410382 -5.5401788 -55.445833 80.929574 -57.49885 -101.31898 
	-0.035410382 -5.5401788 -22.002551 83.783226 -57.49885 -101.31898 -55.445219 80.816857 
	-55.445833 80.929574 -57.49885 -101.31898 -22.002567 83.821951 -0.035410382 -5.5401788 
	-57.49885 -101.31898 -55.445219 80.816857 -0.035410382 -5.5401788 -22.002551 83.783226 
4.2 -21.584435 83.564432 -0.038388702 -5.8146133 -55.029102 80.481069 -57.080927 -101.87939 
	-0.038388702 -5.8146133 -21.584418 83.523766 -57.080927 -101.87939 -55.028419 80.362716 
	-55.029102 80.481069 -57.080927 -101.87939 -21.584435 83.564432 -0.038388702 -5.8146133 
	-57.080927 -101.87939 -55.028419 80.362716 -0.038388702 -5.8146133 -21.584418 83.523766 
4.4 -21.186001 83.306006 -0.041494847 -6.08884 -54.6324 80.032992 -56.68297 -102.43937 
	-0.041494847 -6.08884 -21.185984 83.263401 -56.68297 -102.43937 -54.631645 79.909002 
	-54.6324 80.032992 -56.68297 -102.43937 -21.186001 83.306006 -0.041494847 -6.08884 
	-56.68297 -102.43937 -54.631645 79.909002 -0.041494847 -6.08884 -21.185984 83.263401 
4.6 -20.80553 83.046803 -0.044728754 -6.3628532 -54.253976 79.585356 -56.303226 -102.9989 
	-0.044728754 -6.3628532 -20.805513 83.002258 -56.303226 -102.9989 -54.253143 79.455728 
	-54.253976 79.585356 -56.303226 -102.9989 -20.80553 83.046803 -0.044728754 -6.3628532 
	-56.303226 -102.9989 -54.253143 79.455728 -0.044728754 -6.3628532 -20.805513 83.002258 
4.8 -20.441508 82.786934 -0.048090315 -6.6366471 -53.892297 79.138174 -55.940164 -103.55798 
	-0.048090315 -6.6366471 -20.44149 82.740449 -55.940164 -103.55798 -53.891385 79.002904 
	-53.892297 79.138174 -55.940164 -103.55798 -20.441508 82.786934 -0.048090315 -6.6366471 
	-55.940164 -103.55798 -53.891385 79.002904 -0.048090315 -6.6366471 -20.44149 82.740449 
5 -20.092604 82.526494 -0.051579383 -6.9102159 -53.546022 78.691458 -55.592442 -104.11659 
	-0.051579383 -6.9102159 -20.092586 82.478069 -55.592442 -104.11659 -53.545027 78.550546 
	-53.546022 78.691458 -55.592442 -104.11659 -20.092604 82.526494 -0.051579383 -6.9102159 
	-55.592442 -104.11659 -53.545027 78.550546 -0.051579383 -6.9102159 -20.092586 82.478069 
5.2 -19.757646 82.265567 -0.055195773 -7.1835534 -53.213967 78.245222 -55.258875 -104.67472 
	-0.055195773 -7.1835534 -19.757627 82.215202 -55.258875 -104.67472 -53.212884 78.098665 
	-53.213967 78.245222 -55.258875 -104.67472 -19.757646 82.265567 -0.055195773 -7.1835534 
	-55.258875 -104.67472 -53.212884 78.098665 -0.055195773 -7.1835534 -19.757627 82.215202 
5.4 -19.435593 82.004228 -0.05893927 -7.4566535 -52.89508 77.799479 -54.938414 -105.23236 
	-0.05893927 -7.4566535 -19.435574 81.951922 -54.938414 -105.23236 -52.893907 77.647274 
	-52.89508 77.799479 -54.938414 -105.23236 -19.435593 82.004228 -0.05893927 -7.4566535 
	-54.938414 -105.23236 -52.893907 77.647274 -0.05893927 -7.4566535 -19.435574 81.951922 
5.6 -19.125518 81.742541 -0.062809624 -7.72951 -52.588425 77.354242 -54.630122 -105.7895 
	-0.062809624 -7.72951 -19.125499 81.688294 -54.630122 -105.7895 -52.587159 77.196389 
	-52.588425 77.354242 -54.630122 -105.7895 -19.125518 81.742541 -0.062809624 -7.72951 
	-54.630122 -105.7895 -52.587159 77.196389 -0.062809624 -7.72951 -19.125499 81.688294 
5.8 -18.826592 81.480564 -0.066806562 -8.0021165 -52.293166 76.909526 -54.333162 -106.34612 
	-0.066806562 -8.0021165 -18.826573 81.424376 -54.333162 -106.34612 -52.291802 76.746021 
	-52.293166 76.909526 -54.333162 -106.34612 -18.826592 81.480564 -0.066806562 -8.0021165 
	-54.333162 -106.34612 -52.291802 76.746021 -0.066806562 -8.0021165 -18.826573 81.424376 
6 -18.538069 81.218349 -0.07092978 -8.2744667 -52.008548 76.465343 -54.046781 -106.90221 
	-0.07092978 -8.2744667 -18.538049 81.160221 -54.046781 -106.90221 -52.007084 76.296185 
	-52.008548 76.465343 -54.046781 -106.90221 -18.538069 81.218349 -0.07092978 -8.2744667 
	-54.046781 -106.90221 -52.007084 76.296185 -0.07092978 -8.2744667 -18.538049 81.160221 
6.2 -18.259277 80.955943 -0.075178952 -8.5465541 -51.733895 76.021708 -53.770301 -107.45776 
	-0.075178952 -8.5465541 -18.259257 80.895874 -53.770301 -107.45776 -51.732327 75.846894 
	-51.733895 76.021708 -53.770301 -107.45776 -18.259277 80.955943 -0.075178952 -8.5465541 
	-53.770301 -107.45776 -51.732327 75.846894 -0.075178952 -8.5465541 -18.259257 80.895874 
6.4 -17.989607 80.693389 -0.07955373 -8.8183723 -51.468592 75.578635 -53.503108 -108.01276 
	-0.07955373 -8.8183723 -17.989586 80.631378 -53.503108 -108.01276 -51.466916 75.398161 
	-51.468592 75.578635 -53.503108 -108.01276 -17.989607 80.693389 -0.07955373 -8.8183723 
	-53.503108 -108.01276 -51.466916 75.398161 -0.07955373 -8.8183723 -17.989586 80.631378 
6.6 -17.728507 80.430724 -0.084053741 -9.0899149 -51.212082 75.136137 -53.244645 -108.56718 
	-0.084053741 -9.0899149 -17.728486 80.366772 -53.244645 -108.56718 -51.210294 74.950002 
	-51.212082 75.136137 -53.244645 -108.56718 -17.728507 80.430724 -0.084053741 -9.0899149 
	-53.244645 -108.56718 -51.210294 74.950002 -0.084053741 -9.0899149 -17.728486 80.366772 
6.8 -17.475474 80.167984 -0.088678593 -9.3611754 -50.963856 74.694228 -52.994404 -109.12103 
	-0.088678593 -9.3611754 -17.475453 80.102091 -52.994404 -109.12103 -50.961954 74.502429 
	-50.963856 74.694228 -52.994404 -109.12103 -17.475474 80.167984 -0.088678593 -9.3611754 
	-52.994404 -109.12103 -50.961954 74.502429 -0.088678593 -9.3611754 -17.475453 80.102091 
7 -17.230049 79.905202 -0.093427875 -9.6321473 -50.723452 74.252922 -52.751922 -109.67427 
	-0.093427875 -9.6321473 -17.230028 79.837367 -52.751922 -109.67427 -50.721432 74.055457 
	-50.723452 74.252922 -52.751922 -109.67427 -17.230049 79.905202 -0.093427875 -9.6321473 
	-52.751922 -109.67427 -50.721432 74.055457 -0.093427875 -9.6321473 -17.230028 79.837367 
7.2 -16.991812 79.642406 -0.098301156 -9.9028242 -50.490445 73.812234 -52.516774 -110.22691 
	-0.098301156 -9.9028242 -16.99179 79.57263 -52.516774 -110.22691 -50.488304 73.609098 
	-50.490445 73.812234 -52.516774 -110.22691 -16.991812 79.642406 -0.098301156 -9.9028242 
	-52.516774 -110.22691 -50.488304 73.609098 -0.098301156 -9.9028242 -16.99179 79.57263 
7.4 -16.760375 79.379625 -0.10329799 -10.1732 -50.264446 73.372176 -52.288571 -110.77893 
	-0.10329799 -10.1732 -16.760354 79.307907 -52.288571 -110.77893 -50.262179 73.163367 
	-50.264446 73.372176 -52.288571 -110.77893 -16.760375 79.379625 -0.10329799 -10.1732 
	-52.288571 -110.77893 -50.262179 73.163367 -0.10329799 -10.1732 -16.760354 79.307907 
7.6 -16.535384 79.116884 -0.1084179 -10.443267 -50.045095 72.932762 -52.066954 -111.33031 
	-0.1084179 -10.443267 -16.535363 79.043223 -52.066954 -111.33031 -50.0427 72.718278 
	-50.045095 72.932762 -52.066954 -111.33031 -16.535384 79.116884 -0.1084179 -10.443267 
	-52.066954 -111.33031 -50.0427 72.718278 -0.1084179 -10.443267 -16.535363 79.043223 
7.8 -16.316512 78.854207 -0.11366042 -10.71302 -49.832062 72.494007 -51.851592 -111.88105 
	-0.11366042 -10.71302 -16.31649 78.778604 -51.851592 -111.88105 -49.829535 72.273844 
	-49.832062 72.494007 -51.851592 -111.88105 -16.316512 78.854207 -0.11366042 -10.71302 
	-51.851592 -111.88105 -49.829535 72.273844 -0.11366042 -10.71302 -16.31649 78.778604 
8 -16.103454 78.591616 -0.11902504 -10.982453 -49.625041 72.055924 -51.642181 -112.43112 
	-0.11902504 -10.982453 -16.103432 78.51407 -51.642181 -112.43112 -49.622379 71.830079 
	-49.625041 72.055924 -51.642181 -112.43112 -16.103454 78.591616 -0.11902504 -10.982453 
	-51.642181 -112.43112 -49.622379 71.830079 -0.11902504 -10.982453 -16.103432 78.51407 
8.2 -15.895931 78.329131 -0.12451126 -11.251558 -49.423749 71.618526 -51.438436 -112.98052 
	-0.12451126 -11.251558 -15.895909 78.249643 -51.438436 -112.98052 -49.420948 71.386995 
	-49.423749 71.618526 -51.438436 -112.98052 -15.895931 78.329131 -0.12451126 -11.251558 
	-51.438436 -112.98052 -49.420948 71.386995 -0.12451126 -11.251558 -15.895909 78.249643 
8.4 -15.693683 78.066773 -0.13011853 -11.52033 -49.227923 71.181828 -51.240095 -113.52923 
	-0.13011853 -11.52033 -15.69366 77.985342 -51.240095 -113.52923 -49.224981 70.944608 
	-49.227923 71.181828 -51.240095 -113.52923 -15.693683 78.066773 -0.13011853 -11.52033 
	-51.240095 -113.52923 -49.224981 70.944608 -0.13011853 -11.52033 -15.69366 77.985342 
8.6 -15.496467 77.804559 -0.13584632 -11.788762 -49.037319 70.745842 -51.046914 -114.07725 
	-0.13584632 -11.788762 -15.496444 77.721185 -51.046914 -114.07725 -49.034231 70.50293 
	-49.037319 70.745842 -51.046914 -114.07725 -15.496467 77.804559 -0.13584632 -11.788762 
	-51.046914 -114.07725 -49.034231 70.50293 -0.13584632 -11.788762 -15.496444 77.721185 
8.8 -15.304057 77.542508 -0.14169406 -12.056848 -48.85171 70.310582 -50.858665 -114.62455 
	-0.14169406 -12.056848 -15.304035 77.457191 -50.858665 -114.62455 -48.848473 70.061974 
	-48.85171 70.310582 -50.858665 -114.62455 -15.304057 77.542508 -0.14169406 -12.056848 
	-50.858665 -114.62455 -48.848473 70.061974 -0.14169406 -12.056848 -15.304035 77.457191 
9 -15.116245 77.280635 -0.1476612 -12.324582 -48.670882 69.876062 -50.675136 -115.17112 
	-0.1476612 -12.324582 -15.116222 77.193375 -50.675136 -115.17112 -48.667493 69.621753 
	-48.670882 69.876062 -50.675136 -115.17112 -15.116245 77.280635 -0.1476612 -12.324582 
	-50.675136 -115.17112 -48.667493 69.621753 -0.1476612 -12.324582 -15.116222 77.193375 
9.2 -14.932832 77.018957 -0.15374714 -12.591957 -48.494638 69.442294 -50.496128 -115.71696 
	-0.15374714 -12.591957 -14.932809 76.929753 -50.496128 -115.71696 -48.491093 69.182282 
	-48.494638 69.442294 -50.496128 -115.71696 -14.932832 77.018957 -0.15374714 -12.591957 
	-50.496128 -115.71696 -48.491093 69.182282 -0.15374714 -12.591957 -14.932809 76.929753 
9.4 -14.753636 76.757488 -0.15995129 -12.858968 -48.322791 69.009292 -50.321455 -116.26204 
	-0.15995129 -12.858968 -14.753613 76.66634 -50.321455 -116.26204 -48.319087 68.743573 
	-48.322791 69.009292 -50.321455 -116.26204 -14.753636 76.757488 -0.15995129 -12.858968 
	-50.321455 -116.26204 -48.319087 68.743573 -0.15995129 -12.858968 -14.753613 76.66634 
9.6 -14.578484 76.496242 -0.16627304 -13.125609 -48.155168 68.577069 -50.150945 -116.80636 
	-0.16627304 -13.125609 -14.578461 76.403151 -50.150945 -116.80636 -48.151301 68.305638 
	-48.155168 68.577069 -50.150945 -116.80636 -14.578484 76.496242 -0.16627304 -13.125609 
	-50.150945 -116.80636 -48.151301 68.305638 -0.16627304 -13.125609 -14.578461 76.403151 
9.8 -14.407214 76.235234 -0.17271176 -13.391872 -47.991604 68.145637 -49.984432 -117.34991 
	-0.17271176 -13.391872 -14.407191 76.140198 -49.984432 -117.34991 -47.987572 67.868491 
	-47.991604 68.145637 -49.984432 -117.34991 -14.407214 76.235234 -0.17271176 -13.391872 
	-49.984432 -117.34991 -47.987572 67.868491 -0.17271176 -13.391872 -14.407191 76.140198 
10 -14.239675 75.974475 -0.17926683 -13.657753 -47.831947 67.71501 -49.821764 -117.89266 
	-0.17926683 -13.657753 -14.239651 75.877495 -49.821764 -117.89266 -47.827746 67.432144 
	-47.831947 67.71501 -49.821764 -117.89266 -14.239675 75.974475 -0.17926683 -13.657753 
	-49.821764 -117.89266 -47.827746 67.432144 -0.17926683 -13.657753 -14.239651 75.877495 
10.2 -14.075723 75.713979 -0.1859376 -13.923246 -47.676052 67.2852 -49.662796 -118.43462 
	-0.1859376 -13.923246 -14.075699 75.615055 -49.662796 -118.43462 -47.671678 66.996611 
	-47.676052 67.2852 -49.662796 -118.43462 -14.075723 75.713979 -0.1859376 -13.923246 
	-49.662796 -118.43462 -47.671678 66.996611 -0.1859376 -13.923246 -14.075699 75.615055 
10.4 -13.915223 75.453757 -0.19272341 -14.188344 -47.523783 66.85622 -49.507392 -118.97576 
	-0.19272341 -14.188344 -13.915199 75.352888 -49.507392 -118.97576 -47.519232 66.561903 
	-47.523783 66.85622 -49.507392 -118.97576 -13.915223 75.453757 -0.19272341 -14.188344 
	-49.507392 -118.97576 -47.519232 66.561903 -0.19272341 -14.188344 -13.915199 75.352888 
10.6 -13.758049 75.193821 -0.1996236 -14.453041 -47.37501 66.428083 -49.355424 -119.51608 
	-0.1996236 -14.453041 -13.758025 75.091007 -49.355424 -119.51608 -47.37028 66.128033 
	-47.37501 66.428083 -49.355424 -119.51608 -13.758049 75.193821 -0.1996236 -14.453041 
	-49.355424 -119.51608 -47.37028 66.128033 -0.1996236 -14.453041 -13.758025 75.091007 
10.8 -13.604081 74.934182 -0.20663749 -14.717333 -47.229612 66.0008 -49.206769 -120.05556 
	-0.20663749 -14.717333 -13.604057 74.829423 -49.206769 -120.05556 -47.2247 65.695013 
	-47.229612 66.0008 -49.206769 -120.05556 -13.604081 74.934182 -0.20663749 -14.717333 
	-49.206769 -120.05556 -47.2247 65.695013 -0.20663749 -14.717333 -13.604057 74.829423 
11 -13.453205 74.674851 -0.21376439 -14.981213 -47.087476 65.574384 -49.061313 -120.59419 
	-0.21376439 -14.981213 -13.45318 74.568147 -49.061313 -120.59419 -47.082377 65.262856 
	-47.087476 65.574384 -49.061313 -120.59419 -13.453205 74.674851 -0.21376439 -14.981213 
	-49.061313 -120.59419 -47.082377 65.262856 -0.21376439 -14.981213 -13.45318 74.568147 
11.2 -13.305313 74.415838 -0.22100361 -15.244676 -46.94849 65.148847 -48.918947 -121.13197 
	-0.22100361 -15.244676 -13.305288 74.307188 -48.918947 -121.13197 -46.943202 64.831573 
	-46.94849 65.148847 -48.918947 -121.13197 -13.305313 74.415838 -0.22100361 -15.244676 
	-48.918947 -121.13197 -46.943202 64.831573 -0.22100361 -15.244676 -13.305288 74.307188 
11.4 -13.160304 74.157152 -0.22835444 -15.507715 -46.812554 64.724202 -48.779568 -121.66887 
	-0.22835444 -15.507715 -13.160279 74.046556 -48.779568 -121.66887 -46.807073 64.401177 
	-46.812554 64.724202 -48.779568 -121.66887 -13.160304 74.157152 -0.22835444 -15.507715 
	-48.779568 -121.66887 -46.807073 64.401177 -0.22835444 -15.507715 -13.160279 74.046556 
11.6 -13.018082 73.898804 -0.23581617 -15.770327 -46.679568 64.300459 -48.643079 -122.20489 
	-0.23581617 -15.770327 -13.018057 73.786262 -48.643079 -122.20489 -46.673891 63.971679 
	-46.679568 64.300459 -48.643079 -122.20489 -13.018082 73.898804 -0.23581617 -15.770327 
	-48.643079 -122.20489 -46.673891 63.971679 -0.23581617 -15.770327 -13.018057 73.786262 
11.8 -12.878555 73.640802 -0.24338807 -16.032504 -46.54944 63.877631 -48.509387 -122.74001 
	-0.24338807 -16.032504 -12.87853 73.526314 -48.509387 -122.74001 -46.543563 63.543091 
	-46.54944 63.877631 -48.509387 -122.74001 -12.878555 73.640802 -0.24338807 -16.032504 
	-48.509387 -122.74001 -46.543563 63.543091 -0.24338807 -16.032504 -12.87853 73.526314 
12 -12.741636 73.383156 -0.2510694 -16.294242 -46.422082 63.455729 -48.378403 -123.27423 
	-0.2510694 -16.294242 -12.74161 73.266722 -48.378403 -123.27423 -46.416002 63.115424 
	-46.422082 63.455729 -48.378403 -123.27423 -12.741636 73.383156 -0.2510694 -16.294242 
	-48.378403 -123.27423 -46.416002 63.115424 -0.2510694 -16.294242 -12.74161 73.266722 
12.2 -12.607242 73.125874 -0.25885943 -16.555536 -46.29741 63.034766 -48.250043 -123.80753 
	-0.25885943 -16.555536 -12.607216 73.007493 -48.250043 -123.80753 -46.291124 62.68869 
	-46.29741 63.034766 -48.250043 -123.80753 -12.607242 73.125874 -0.25885943 -16.555536 
	-48.250043 -123.80753 -46.291124 62.68869 -0.25885943 -16.555536 -12.607216 73.007493 
12.4 -12.475294 72.868966 -0.2667574 -16.81638 -46.175343 62.614751 -48.124228 -124.33991 
	-0.2667574 -16.81638 -12.475268 72.748638 -48.124228 -124.33991 -46.168847 62.2629 
	-46.175343 62.614751 -48.124228 -124.33991 -12.475294 72.868966 -0.2667574 -16.81638 
	-48.124228 -124.33991 -46.168847 62.2629 -0.2667574 -16.81638 -12.475268 72.748638 
12.6 -12.345718 72.612438 -0.27476256 -17.076769 -46.055806 62.195697 -48.000881 -124.87134 
	-0.27476256 -17.076769 -12.345692 72.490163 -48.000881 -124.87134 -46.049097 61.838065 
	-46.055806 62.195697 -48.000881 -124.87134 -12.345718 72.612438 -0.27476256 -17.076769 
	-48.000881 -124.87134 -46.049097 61.838065 -0.27476256 -17.076769 -12.345692 72.490163 
12.8 -12.218441 72.356299 -0.28287413 -17.336698 -45.938725 61.777614 -47.87993 -125.40183 
	-0.28287413 -17.336698 -12.218416 72.232076 -47.87993 -125.40183 -45.9318 61.414197 
	-45.938725 61.777614 -47.87993 -125.40183 -12.218441 72.356299 -0.28287413 -17.336698 
	-47.87993 -125.40183 -45.9318 61.414197 -0.28287413 -17.336698 -12.218416 72.232076 
13 -12.093396 72.100557 -0.29109136 -17.596162 -45.824031 61.360514 -47.761306 -125.93136 
	-0.29109136 -17.596162 -12.093371 71.974387 -47.761306 -125.93136 -45.816887 60.991305 
	-45.824031 61.360514 -47.761306 -125.93136 -12.093396 72.100557 -0.29109136 -17.596162 
	-47.761306 -125.93136 -45.816887 60.991305 -0.29109136 -17.596162 -12.093371 71.974387 
13.2 -11.970518 71.845219 -0.29941345 -17.855156 -45.711659 60.944407 -47.644941 -126.45992 
	-0.29941345 -17.855156 -11.970492 71.717101 -47.644941 -126.45992 -45.704291 60.569401 
	-45.711659 60.944407 -47.644941 -126.45992 -11.970518 71.845219 -0.29941345 -17.855156 
	-47.644941 -126.45992 -45.704291 60.569401 -0.29941345 -17.855156 -11.970492 71.717101 
13.4 -11.849744 71.590293 -0.30783962 -18.113674 -45.601544 60.529303 -47.530773 -126.9875 
	-0.30783962 -18.113674 -11.849718 71.460226 -47.530773 -126.9875 -45.59395 60.148495 
	-45.601544 60.529303 -47.530773 -126.9875 -11.849744 71.590293 -0.30783962 -18.113674 
	-47.530773 -126.9875 -45.59395 60.148495 -0.30783962 -18.113674 -11.849718 71.460226 
13.6 -11.731015 71.335785 -0.31636907 -18.371714 -45.493626 60.115214 -47.418741 -127.51409 
	-0.31636907 -18.371714 -11.730989 71.20377 -47.418741 -127.51409 -45.485803 59.728598 
	-45.493626 60.115214 -47.418741 -127.51409 -11.731015 71.335785 -0.31636907 -18.371714 
	-47.418741 -127.51409 -45.485803 59.728598 -0.31636907 -18.371714 -11.730989 71.20377 
13.8 -11.614273 71.081703 -0.32500101 -18.629268 -45.387847 59.70215 -47.308787 -128.03968 
	-0.32500101 -18.629268 -11.614247 70.947739 -47.308787 -128.03968 -45.37979 59.30972 
	-45.387847 59.70215 -47.308787 -128.03968 -11.614273 71.081703 -0.32500101 -18.629268 
	-47.308787 -128.03968 -45.37979 59.30972 -0.32500101 -18.629268 -11.614247 70.947739 
14 -11.499465 70.828053 -0.33373462 -18.886334 -45.28415 59.29012 -47.200855 -128.56426 
	-0.33373462 -18.886334 -11.499439 70.69214 -47.200855 -128.56426 -45.275858 58.891871 
	-45.28415 59.29012 -47.200855 -128.56426 -11.499465 70.828053 -0.33373462 -18.886334 
	-47.200855 -128.56426 -45.275858 58.891871 -0.33373462 -18.886334 -11.499439 70.69214 
