! Created Thu Oct 05 12:26:51 2017
! List of port names and net name(s): example Port n = <port_name> <net_name1> <net_name2> ...
! Port 1 = P1 P4 
! Port 2 = P2 P4 
! Port 3 = P3 P4 
! Port 4 = P4 P4 
# hz S ma R 50
! 4 Port Network Data from data block
! freq  magS11  angS11  magS12  angS12  magS13  angS13  magS14  angS14  
!       magS21  angS21  magS22  angS22  magS23  angS23  magS24  angS24  
!       magS31  angS31  magS32  angS32  magS33  angS33  magS34  angS34  
!       magS41  angS41  magS42  angS42  magS43  angS43  magS44  angS44  
!     
                 0       0.391519578                180        0.507505368                  0        0.556920617                  0        0.327093591                  0
                      0.507505368                  0        0.340012373                180        0.524480257                  0        0.308026745                  0
                      0.556920617                  0        0.524480257                  0        0.419308241                180        0.337907366                  0
                      0.327093591                  0        0.308026745                  0        0.337907366                  0       0.0269722961                  0

        9.73699606       0.391519578                180        0.507505368   -2.20869975e-007        0.556920617   -2.11528306e-007        0.327093591   -2.43261768e-007
                      0.507505368   -2.20869975e-007        0.340012373               -180        0.524480257   -4.63889356e-008        0.308026744   -4.52355281e-008
                      0.556920617   -2.11528306e-007        0.524480257   -4.63889356e-008        0.419308241               -180        0.337907366   -6.21323015e-008
                      0.327093591   -2.43261768e-007        0.308026744   -4.52355281e-008        0.337907366   -6.21323015e-008       0.0269722961    4.41873743e-008

        97.3699606       0.391519577         179.999997        0.507505368   -2.20869974e-006        0.556920617   -2.11528309e-006         0.32709359    -2.4326178e-006
                      0.507505368   -2.20869974e-006        0.340012373               -180        0.524480256   -4.63889263e-007        0.308026744   -4.52355322e-007
                      0.556920617   -2.11528309e-006        0.524480256   -4.63889263e-007        0.419308241        -179.999999        0.337907365   -6.21322894e-007
                       0.32709359    -2.4326178e-006        0.308026744   -4.52355322e-007        0.337907365   -6.21322894e-007       0.0269722961    4.41873802e-007

        973.699605       0.391519577         179.999972        0.507505368   -2.20869974e-005        0.556920616   -2.11528309e-005         0.32709359    -2.4326178e-005
                      0.507505368   -2.20869974e-005        0.340012373        -179.999995        0.524480256   -4.63889258e-006        0.308026744   -4.52355318e-006
                      0.556920616   -2.11528309e-005        0.524480256   -4.63889258e-006        0.419308241        -179.999995        0.337907365   -6.21322899e-006
                       0.32709359    -2.4326178e-005        0.308026744   -4.52355318e-006        0.337907365   -6.21322899e-006       0.0269722961    4.41873902e-006

        9736.99605       0.391519577         179.999718        0.507505368    -0.000220869974        0.556920616    -0.000211528309         0.32709359     -0.00024326178
                      0.507505368    -0.000220869974        0.340012373        -179.999951        0.524480256   -4.63889258e-005        0.308026744   -4.52355318e-005
                      0.556920616    -0.000211528309        0.524480256   -4.63889258e-005        0.419308241         -179.99995        0.337907365   -6.21322899e-005
                       0.32709359     -0.00024326178        0.308026744   -4.52355318e-005        0.337907365   -6.21322899e-005       0.0269722961    4.41873909e-005

        12258.1518       0.391519577         179.999645        0.507505368    -0.000278058823        0.556920616    -0.000266298363         0.32709359    -0.000306248436
                      0.507505368    -0.000278058823        0.340012373        -179.999938        0.524480256   -5.84001975e-005        0.308026744   -5.69481607e-005
                      0.556920616    -0.000266298363        0.524480256   -5.84001975e-005        0.419308241        -179.999937        0.337907365   -7.82199186e-005
                       0.32709359    -0.000306248436        0.308026744   -5.69481607e-005        0.337907365   -7.82199186e-005       0.0269722961    5.56286293e-005

        15432.0988       0.391519577         179.999553        0.507505368    -0.000350055318        0.556920616    -0.000335249777         0.32709359     -0.00038554394
                      0.507505368    -0.000350055318        0.340012373        -179.999922        0.524480256   -7.35214926e-005        0.308026744   -7.16934865e-005
                      0.556920616    -0.000335249777        0.524480256   -7.35214926e-005        0.419308241        -179.999921        0.337907365   -9.84730432e-005
                       0.32709359     -0.00038554394        0.308026744   -7.16934865e-005        0.337907365   -9.84730432e-005       0.0269722961     7.0032295e-005

        19427.8613       0.391519577         179.999437        0.507505368    -0.000440693535        0.556920616    -0.000422054464         0.32709359    -0.000485371063
                      0.507505368    -0.000440693535        0.340012373        -179.999901        0.524480256   -9.25580754e-005        0.308026744   -9.02567521e-005
                      0.556920616    -0.000422054464        0.524480256   -9.25580754e-005        0.419308241          -179.9999        0.337907365    -0.000123970217
                       0.32709359    -0.000485371063        0.308026744   -9.02567521e-005        0.337907365    -0.000123970217       0.0269722961    8.81654358e-005

        24458.2283       0.391519577         179.999291        0.507505368    -0.000554800291        0.556920616    -0.000531335089         0.32709359    -0.000611045964
                      0.507505368    -0.000554800291        0.340012373        -179.999876        0.524480256    -0.000116523713        0.308026744    -0.000113626519
                      0.556920616    -0.000531335089        0.524480256    -0.000116523713        0.419308241        -179.999874        0.337907365    -0.000156069256
                       0.32709359    -0.000611045964        0.308026744    -0.000113626519        0.337907365    -0.000156069256       0.0269722961     0.000110993708

        30791.0851       0.391519577         179.999108        0.507505368    -0.000698452185        0.556920616    -0.000668911246         0.32709359    -0.000769261293
                      0.507505368    -0.000698452185        0.340012373        -179.999843        0.524480256    -0.000146694664        0.308026744    -0.000143047312
                      0.556920616    -0.000668911246        0.524480256    -0.000146694664        0.419308241        -179.999842        0.337907365    -0.000196479553
                       0.32709359    -0.000769261293        0.308026744    -0.000143047312        0.337907365    -0.000196479553       0.0269722961       0.0001397328

        38763.6795       0.391519577         179.998877        0.507505368    -0.000879299204        0.556920616    -0.000842109366         0.32709359     -0.00096844259
                      0.507505368    -0.000879299204        0.340012373        -179.999803        0.524480256     -0.00018467764        0.308026744    -0.000180085896
                      0.556920616    -0.000842109366        0.524480256     -0.00018467764        0.419308241        -179.999801        0.337907365    -0.000247353101
                       0.32709359     -0.00096844259        0.308026744    -0.000180085896        0.337907365    -0.000247353101       0.0269722961     0.000175913174

        48800.5812       0.391519577         179.998586        0.507505368     -0.00110697211        0.556920616     -0.00106015288         0.32709359     -0.00121919699
                      0.507505368     -0.00110697211        0.340012373        -179.999752        0.524480256    -0.000232495373        0.308026744    -0.000226714711
                      0.556920616     -0.00106015288        0.524480256    -0.000232495373        0.419308241        -179.999749        0.337907365    -0.000311399105
                       0.32709359     -0.00121919699        0.308026744    -0.000226714711        0.337907365    -0.000311399105       0.0269722961     0.000221461568

        61436.2917       0.391519577          179.99822        0.507505368     -0.00139359533        0.556920616      -0.0013346534         0.32709359     -0.00153487807
                      0.507505368     -0.00139359533        0.340012373        -179.999688        0.524480256    -0.000292694334        0.308026744     -0.00028541691
                      0.556920616      -0.0013346534        0.524480256    -0.000292694334        0.419308241        -179.999684        0.337907365    -0.000392028246
                       0.32709359     -0.00153487807        0.308026744     -0.00028541691        0.337907365    -0.000392028246       0.0269722961       0.0002788036

        77343.7089       0.391519576         179.997759        0.507505368     -0.00175443257        0.556920616     -0.00168022909         0.32709359     -0.00193229701
                      0.507505368     -0.00175443257        0.340012373        -179.999607        0.524480256    -0.000368480335        0.308026744    -0.000359318602
                      0.556920616     -0.00168022909        0.524480256    -0.000368480335        0.419308241        -179.999602        0.337907365    -0.000493534321
                       0.32709359     -0.00193229701        0.308026744    -0.000359318602        0.337907365    -0.000493534321       0.0269722961     0.000350992945

        97369.9606       0.391519575         179.997178        0.507505368     -0.00220869974        0.556920616     -0.00211528309         0.32709359      -0.0024326178
                      0.507505368     -0.00220869974        0.340012373        -179.999505        0.524480256    -0.000463889257        0.308026744     -0.00045235532
                      0.556920616     -0.00211528309        0.524480256    -0.000463889257        0.419308241        -179.999499        0.337907365    -0.000621322898
                       0.32709359      -0.0024326178        0.308026744     -0.00045235532        0.337907365    -0.000621322898       0.0269722961     0.000441873955

        122581.518       0.391510001         179.996448        0.507500001       -0.002780567        0.556920001     -0.00266293894            0.32709     -0.00306246633
                      0.507500001       -0.002780567            0.34001        -179.999377            0.52448    -0.000584002265            0.30802     -0.00056949795
                      0.556920001     -0.00266293894            0.52448    -0.000584002265             0.4193        -179.999369             0.3379    -0.000782217107
                          0.32709     -0.00306246633            0.30802     -0.00056949795             0.3379    -0.000782217107           0.026972     0.000556282285

        154320.988       0.391510001         179.995528        0.507500001       -0.003500631        0.556920001     -0.00335254177        0.327090001     -0.00385545295
                      0.507500001       -0.003500631            0.34001        -179.999216            0.52448    -0.000735216454            0.30802    -0.000716950597
                      0.556920001     -0.00335254177            0.52448    -0.000735216454             0.4193        -179.999206             0.3379    -0.000984744716
                      0.327090001     -0.00385545295            0.30802    -0.000716950597             0.3379    -0.000984744716           0.026972     0.000700328956

        194278.613       0.391510002          179.99437        0.507500002     -0.00440697685        0.556920002     -0.00422053806        0.327090001     -0.00485373674
                      0.507500002     -0.00440697685            0.34001        -179.999013            0.52448    -0.000925583342            0.30802     -0.00090259175
                      0.556920002     -0.00422053806            0.52448    -0.000925583342             0.4193           -179.999             0.3379     -0.00123973552
                      0.327090001     -0.00485373674            0.30802     -0.00090259175             0.3379     -0.00123973552           0.026972     0.000881656545

        244582.283       0.391510003         179.992912        0.507500002     -0.00554803781        0.556920002     -0.00531332655        0.327090002     -0.00611056885
                      0.507500002     -0.00554803781            0.34001        -179.998757            0.52448     -0.00116518606            0.30802     -0.00113629871
                      0.556920002     -0.00531332655            0.52448     -0.00116518606             0.4193        -179.998742             0.3379     -0.00156072076
                      0.327090002     -0.00611056885            0.30802     -0.00113629871             0.3379     -0.00156072076           0.026972      0.00110995172

        307910.851       0.391510005         179.991077        0.507500004     -0.00698455306        0.556920004     -0.00668913717        0.327090003     -0.00769268837
                      0.507500004     -0.00698455306            0.34001        -179.998435            0.52448     -0.00146691528            0.30802     -0.00143049715
                      0.556920004     -0.00668913717            0.52448     -0.00146691528             0.4193        -179.998416             0.3379     -0.00196491119
                      0.327090003     -0.00769268837            0.30802     -0.00143049715             0.3379     -0.00196491119           0.026972      0.00139734405

        387636.795       0.391510008         179.988767        0.507500006     -0.00879306749        0.556920006      -0.0084211174        0.327090005     -0.00968452637
                      0.507500006     -0.00879306749            0.34001         -179.99803            0.52448     -0.00184675326            0.30802      -0.0018009052
                      0.556920006      -0.0084211174            0.52448     -0.00184675326             0.4193        -179.998006             0.3379     -0.00247360412
                      0.327090005     -0.00968452637            0.30802      -0.0018009052             0.3379     -0.00247360412           0.026972      0.00175914952

        488005.812       0.391510012         179.985858        0.507500009      -0.0110698832         0.55692001      -0.0106017561        0.327090007      -0.0121920596
                      0.507500009      -0.0110698832            0.34001         -179.99752            0.52448     -0.00232490997            0.30802     -0.00226712863
                       0.55692001      -0.0106017561            0.52448     -0.00232490997             0.4193        -179.997489             0.3379      -0.0031140485
                      0.327090007      -0.0121920596            0.30802     -0.00226712863             0.3379      -0.0031140485           0.026972      0.00221455028

        614362.917       0.391510019         179.982196        0.507500015      -0.0139361397        0.556920015      -0.0133465872        0.327090012      -0.0153489415
                      0.507500015      -0.0139361397        0.340010001        -179.996877        0.524480001     -0.00292694825            0.30802     -0.00285418622
                      0.556920015      -0.0133465872        0.524480001     -0.00292694825        0.419300001        -179.996839        0.337900001     -0.00392032678
                      0.327090012      -0.0153489415            0.30802     -0.00285418622        0.337900001     -0.00392032678           0.026972      0.00278810287

        773437.089        0.39151003         179.977586        0.507500024      -0.0175443623        0.556920024      -0.0168023171        0.327090019      -0.0193228078
                      0.507500024      -0.0175443623        0.340010001        -179.996069        0.524480001     -0.00368476708        0.308020001     -0.00359321658
                      0.556920024      -0.0168023171        0.524480001     -0.00368476708        0.419300001         -179.99602        0.337900001     -0.00493550829
                      0.327090019      -0.0193228078        0.308020001     -0.00359321658        0.337900001     -0.00493550829       0.0269720001      0.00350992942

        973699.605       0.391510047         179.971783        0.507500038      -0.0220873808        0.556920038      -0.0211531004        0.327090029       -0.024325612
                      0.507500038      -0.0220873808        0.340010001        -179.995051        0.524480002     -0.00463889562        0.308020001      -0.0045236545
                      0.556920038      -0.0211531004        0.524480002     -0.00463889562        0.419300002         -179.99499        0.337900002      -0.0062133449
                      0.327090029       -0.024325612        0.308020001      -0.0045236545        0.337900002      -0.0062133449       0.0269720001      0.00441890406

        1225815.18       0.391510075         179.964476         0.50750006      -0.0278056678         0.55692006      -0.0266293875        0.327090047      -0.0306246604
                       0.50750006      -0.0278056678        0.340010002        -179.993769        0.524480003     -0.00584002263        0.308020002     -0.00569497948
                       0.55692006      -0.0266293875        0.524480003     -0.00584002263        0.419300003        -179.993693        0.337900003     -0.00782217102
                      0.327090047      -0.0306246604        0.308020002     -0.00569497948        0.337900003     -0.00782217102       0.0269720001      0.00556303526

        1543209.88       0.391510119         179.955278        0.507500095      -0.0350063057        0.556920095       -0.033525414        0.327090074      -0.0385545237
                      0.507500095      -0.0350063057        0.340010003        -179.992156        0.524480004      -0.0073521645        0.308020002     -0.00716950594
                      0.556920095       -0.033525414        0.524480004      -0.0073521645        0.419300004         -179.99206        0.337900005     -0.00984744706
                      0.327090074      -0.0385545237        0.308020002     -0.00716950594        0.337900005     -0.00984744706       0.0269720002      0.00700350195

        1942786.13       0.391510189         179.943699         0.50750015      -0.0440697598        0.556920151       -0.042205373        0.327090117      -0.0485373559
                       0.50750015      -0.0440697598        0.340010005        -179.990125        0.524480007     -0.00925583334        0.308020004     -0.00902591743
                      0.556920151       -0.042205373        0.524480007     -0.00925583334        0.419300006        -179.990004        0.337900008       -0.012397355
                      0.327090117      -0.0485373559        0.308020004     -0.00902591743        0.337900008       -0.012397355       0.0269720003      0.00881699023

        2445822.83         0.3915103         179.929122        0.507500238      -0.0554803609        0.556920239      -0.0531332504        0.327090186      -0.0611056656
                      0.507500238      -0.0554803609        0.340010008        -179.987568        0.524480011      -0.0116518604        0.308020006      -0.0113629869
                      0.556920239      -0.0531332504        0.524480011      -0.0116518604         0.41930001        -179.987416        0.337900013      -0.0156072072
                      0.327090186      -0.0611056656        0.308020006      -0.0113629869        0.337900013      -0.0156072072       0.0269720005       0.0111001543

        3079108.51       0.391510475         179.910772        0.507500377      -0.0698454963         0.55692038      -0.0668913416        0.327090295      -0.0769268379
                      0.507500377      -0.0698454963        0.340010013        -179.984349        0.524470017      -0.0146694322         0.30802001      -0.0143049712
                       0.55692038      -0.0668913416        0.524470017      -0.0146694322        0.419300016        -179.984157         0.33790002      -0.0196491112
                      0.327090295      -0.0769268379         0.30802001      -0.0143049712         0.33790002      -0.0196491112       0.0269720008       0.0139749272

        3876367.95       0.391510752          179.88767        0.507500598      -0.0879306066        0.556920602       -0.084211114        0.327090467      -0.0968451724
                      0.507500598      -0.0879306066         0.34001002        -179.980298        0.524470027      -0.0184678841        0.308020015      -0.0180090514
                      0.556920602       -0.084211114        0.524470027      -0.0184678841        0.419300025        -179.980055        0.337900031      -0.0247360396
                      0.327090467      -0.0968451724        0.308020015      -0.0180090514        0.337900031      -0.0247360396       0.0269720013       0.0175944687

        4880058.12       0.391511192         179.858587        0.507500947       -0.110698695        0.556920953       -0.106017441        0.327090741       -0.121920414
                      0.507500947       -0.110698695        0.340010032        -179.975195        0.524470043      -0.0232495417        0.308020024      -0.0226712851
                      0.556920953       -0.106017441        0.524470043      -0.0232495417         0.41930004        -179.974891         0.33790005       -0.031140482
                      0.327090741       -0.121920414        0.308020024      -0.0226712851         0.33790005       -0.031140482        0.026972002       0.0221518745

        6143629.17        0.39151189         179.821971        0.507501501       -0.139361125        0.556911511        -0.13346803        0.327091174       -0.153489051
                      0.507501501       -0.139361125         0.34001005        -179.968773        0.524470068      -0.0292700381        0.308020038      -0.0285418599
                      0.556911511        -0.13346803        0.524470068      -0.0292700381        0.419300064         -179.96839        0.337900079      -0.0392032618
                      0.327091174       -0.153489051        0.308020038      -0.0285418599        0.337900079      -0.0392032618       0.0269720032       0.0278916478

        7734370.89       0.391502995         179.775882        0.507502379        -0.17544308        0.556912395       -0.168025711         0.32709186       -0.193227353
                      0.507502379        -0.17544308         0.34001008        -179.960688        0.524470108      -0.0368483684        0.308020061      -0.0359321612
                      0.556912395       -0.168025711        0.524470108      -0.0368483684        0.419310101        -179.960207        0.337900125      -0.0493533751
                       0.32709186       -0.193227353        0.308020061      -0.0359321612        0.337900125      -0.0493533751       0.0269720051       0.0351226568

        9736996.05       0.391494746         179.717877        0.507503771       -0.220872725        0.556913796       -0.211533851        0.327092948       -0.243272189
                      0.507503771       -0.220872725        0.340010127         -179.95051        0.524470172      -0.0463887382        0.308020096      -0.0452365357
                      0.556913796       -0.211533851        0.524470172      -0.0463887382         0.41931016        -179.949903        0.337900199      -0.0621317292
                      0.327092948       -0.243272189        0.308020096      -0.0452365357        0.337900199      -0.0621317292        0.026972008       0.0442336415

        12258151.8       0.391487521         179.644855        0.507505977       -0.278065807        0.556916016       -0.266307047        0.327094672       -0.306243717
                      0.507505977       -0.278065807        0.340010201        -179.937696        0.524470272      -0.0583991348        0.308020152      -0.0569497762
                      0.556916016       -0.266307047        0.524470272      -0.0583991348        0.419310254        -179.936932        0.337900315      -0.0782199665
                      0.327094672       -0.306243717        0.308020152      -0.0569497762        0.337900315      -0.0782199665       0.0269720128       0.0557216787

        15432098.8       0.391471915         179.552969        0.507499472       -0.350065642        0.556919534       -0.335256371        0.327087405       -0.385551263
                      0.507499472       -0.350065642        0.340020319        -179.921568        0.524470432      -0.0735186371        0.308020241      -0.0716968824
                      0.556919534       -0.335256371        0.524470432      -0.0735186371        0.419310403        -179.920606        0.337900499      -0.0984709834
                      0.327087405       -0.385551263        0.308020241      -0.0716968824        0.337900499      -0.0984709834       0.0269710203       0.0702181509

        17448301.5       0.391465228         179.494619        0.507502109       -0.395799619        0.556922188       -0.379061643        0.327089467       -0.435928597
                      0.507502109       -0.395799619        0.340020407        -179.911323        0.524460552      -0.0831239411        0.308020308      -0.0810644895
                      0.556922188       -0.379061643        0.524460552      -0.0831239411        0.419310515        -179.910235        0.337890638       -0.111337384
                      0.327089467       -0.435928597        0.308020308      -0.0810644895        0.337890638       -0.111337384       0.0269710259       0.0794463012

        19473992.1       0.391448965         179.436004        0.507505085       -0.441758878        0.556925182       -0.423061936        0.327091793       -0.486532966
                      0.507505085       -0.441758878        0.340020507        -179.901031        0.524460688      -0.0927726298        0.308010384      -0.0904796727
                      0.556925182       -0.423061936        0.524460688      -0.0927726298        0.419320641        -179.899819        0.337890795       -0.124261903
                      0.327091793       -0.486532966        0.308010384      -0.0904796727        0.337890795       -0.124261903       0.0269700323       0.0887414679

        24516303.5       0.391410035           179.2902        0.507513908       -0.556140762        0.556924063       -0.532622438        0.327098692       -0.612523692
                      0.507513908       -0.556140762        0.340030804        -179.875416        0.524451089       -0.116787308        0.308010609       -0.113910579
                      0.556924063       -0.532622438        0.524451089       -0.116787308        0.419321016         -179.87389        0.337891259        -0.15642901
                      0.327098692       -0.612523692        0.308010609       -0.113910579        0.337891259        -0.15642901       0.0269690515        0.111965528

        30864197.5        0.39135755         179.106835        0.507517893       -0.700152811        0.556928139       -0.670544726        0.327099624       -0.771126215
                      0.507517893       -0.700152811        0.340041274         -179.84318        0.524441727       -0.147019223        0.308000965       -0.143414013
                      0.556928139       -0.670544726        0.524441727       -0.147019223        0.419341609         -179.84126        0.337881996       -0.196925911
                      0.327099624       -0.771126215        0.308000965       -0.143414013        0.337881996       -0.196925911       0.0269670821        0.141417263

        37815088.9       0.391281283         178.906312        0.507526886       -0.857854016        0.556937255       -0.821569364        0.327104474       -0.944823465
                      0.507526886       -0.857854016        0.340051911        -179.807903        0.524422591       -0.180118056        0.307991449       -0.175726474
                      0.556937255       -0.821569364        0.524422591       -0.180118056        0.419352415        -179.805549        0.337872995       -0.241259134
                      0.327104474       -0.944823465        0.307991449       -0.175726474        0.337872995       -0.241259134       0.0269651243        0.173952129

        46296296.3       0.391166655         178.661999        0.507535272        -1.05029932        0.556955825        -1.00586267        0.327106667        -1.15679567
                      0.507535272        -1.05029932        0.340082864        -179.764874        0.524403883       -0.220484959        0.307982171       -0.215151171
                      0.556955825        -1.00586267        0.524403883       -0.220484959        0.419383617        -179.762023        0.337854488       -0.295337328
                      0.327106667        -1.15679567        0.307982171       -0.215151171        0.337854488       -0.295337328       0.0269601882        0.214071848

        53658095.5        0.39105304         178.450251        0.507544558         -1.2173648        0.556965292        -1.16581874        0.327119559        -1.34075643
                      0.507544558         -1.2173648        0.340103844        -179.727573        0.524375214         -0.2555167        0.307962917       -0.249397673
                      0.556965292        -1.16581874        0.524375214         -0.2555167        0.419414857        -179.724268        0.337836028       -0.342264563
                      0.327119559        -1.34075643        0.307962917       -0.249397673        0.337836028       -0.342264563        0.026955255        0.249204779

          61728395       0.390919016         178.218192        0.507561639        -1.40058307        0.556982619        -1.34131764        0.327118542        -1.54253072
                      0.507561639        -1.40058307        0.340135085        -179.686715        0.524346898       -0.293895902        0.307943862       -0.286960258
                      0.556982619        -1.34131764        0.524346898       -0.293895902        0.419446423        -179.682926        0.337817975       -0.393691336
                      0.327118542        -1.54253072        0.307943862       -0.286960258        0.337817975       -0.393691336       0.0269483406         0.28804983

          71033371       0.390739812         177.951085        0.507580828         -1.6118019        0.557002119        -1.54356661        0.327137002        -1.77518389
                      0.507580828         -1.6118019        0.340176727         -179.63966         0.52429913       -0.338127398        0.307925115       -0.330258355
                      0.557002119        -1.54356661         0.52429913       -0.338127398        0.419488497        -179.635316        0.337790556       -0.452955954
                      0.327137002        -1.77518389        0.307925115       -0.330258355        0.337790556       -0.452955954       0.0269374553        0.333131524

        81018518.5       0.390534418         177.664444        0.507601297        -1.83849393        0.557022998        -1.76073812        0.327144271        -2.02485525
                      0.507601297        -1.83849393        0.340228743        -179.589243         0.52425187       -0.385558141        0.307896657       -0.376755865
                      0.557022998        -1.76073812         0.52425187       -0.385558141        0.419551041        -179.584335        0.337753725       -0.516536959
                      0.327144271        -2.02485525        0.307896657       -0.376755865        0.337753725       -0.516536959       0.0269245977        0.381767595

         100308642       0.390075852         177.110749        0.507660729        -2.27669396        0.557083304        -2.18032001        0.327183263        -2.50744377
                      0.507660729        -2.27669396        0.340353369        -179.492156        0.524128169       -0.477073005         0.30783021       -0.466646328
                      0.557083304        -2.18032001        0.524128169       -0.477073005        0.419686879        -179.486131        0.337671015       -0.639229098
                      0.327183263        -2.50744377         0.30783021       -0.466646328        0.337671015       -0.639229098       0.0268899293        0.476335171

         119598765       0.389543278         176.556591        0.507730011        -2.71521083        0.557163624        -2.60014341        0.327225539        -2.99024058
                      0.507730011        -2.71521083        0.340498949        -179.395529        0.523985784       -0.568401063         0.30774452       -0.556574321
                      0.557163624        -2.60014341        0.523985784       -0.568401063        0.419843919        -179.388401        0.337579832       -0.761714858
                      0.327225539        -2.99024058         0.30774452       -0.556574321        0.337579832       -0.761714858        0.026844336        0.571636796

         138888889       0.388936602         176.001749        0.507809221         -3.1540445        0.557244101        -3.02039647          0.3272712           -3.47344
                      0.507809221         -3.1540445        0.340675467        -179.299417        0.523814702       -0.659521011        0.307639586       -0.646538349
                      0.557244101        -3.02039647        0.523814702       -0.659521011         0.42003214        -179.291206        0.337460164       -0.883988346
                        0.3272712           -3.47344        0.307639586       -0.646538349        0.337460164       -0.883988346       0.0267878214        0.668156659

         158179012       0.388265636         175.446261          0.5078985        -3.59330729        0.557354727        -3.44081341        0.327320385        -3.95723571
                        0.5078985        -3.59330729        0.340872901        -179.203938        0.523624906       -0.750378823        0.307525405        -0.73647572
                      0.557354727        -3.44081341        0.523624906       -0.750378823        0.420251516        -179.194632        0.337331994        -1.00598726
                      0.327320385        -3.95723571        0.307525405        -0.73647572        0.337331994        -1.00598726       0.0267183924        0.766743155

         177469136       0.387510341         174.889677        0.508007996        -4.03303173        0.557465821        -3.86186377        0.327393054        -4.44120053
                      0.508007996        -4.03303173        0.341091227        -179.109161        0.523396377       -0.840961596        0.307401965       -0.826282924
                      0.557465821        -3.86186377        0.523396377       -0.840961596        0.420502022        -179.098741        0.337185306        -1.12768657
                      0.327393054        -4.44120053        0.307401965       -0.826282924        0.337185306        -1.12768657       0.0266380591        0.868329731

         196759259       0.386690268         174.332458        0.508127851        -4.47327871        0.557597409        -4.28331271        0.327459439        -4.92588968
                      0.508127851        -4.47327871         0.34134042        -179.015195        0.523149093       -0.931209917        0.307249263       -0.915990473
                      0.557597409        -4.28331271        0.523149093       -0.931209917        0.420773627        -179.003583        0.337020078        -1.24903851
                      0.327459439        -4.92588968        0.307249263       -0.915990473        0.337020078        -1.24903851       0.0265458346        0.973882643

         216049383       0.385785244         173.774238        0.508258192        -4.91404677        0.557749677        -4.70523854        0.327539575        -5.41103507
                      0.508258192        -4.91404677        0.341620451        -178.922116        0.522883032        -1.02108943        0.307087282        -1.00544667
                      0.557749677        -4.70523854        0.522883032        -1.02108943        0.421086299        -178.909265         0.33684629        -1.37000548
                      0.327539575        -5.41103507        0.307087282        -1.00544667         0.33684629        -1.37000548       0.0264427356         1.08436836

         235339506       0.384804827         173.215208        0.508409292        -5.35545337        0.557902919        -5.12790254        0.327633645        -5.89678384
                      0.508409292        -5.35545337        0.341921287        -178.829995        0.522578173        -1.11061909        0.306906007        -1.09462045
                      0.557902919        -5.12790254        0.522578173        -1.11061909        0.421430007         -178.81581        0.336643916        -1.49058313
                      0.327633645        -5.89678384        0.306906007        -1.09462045        0.336643916        -1.49058313       0.0263277809         1.20070212

         254629630       0.383739015         172.654786        0.508571358        -5.79758366        0.558087277         -5.5511289        0.327731819        -6.38330252
                      0.508571358        -5.79758366        0.342242893         -178.73893         0.52225447        -1.19964091        0.306705421        -1.18343498
                      0.558087277         -5.5511289         0.52225447        -1.19964091        0.421794711        -178.723288        0.336422932        -1.61073715
                      0.327731819        -6.38330252        0.306705421        -1.18343498        0.336422932        -1.61073715       0.0262029927         1.32371776

         273919753       0.382606943         172.093686        0.508744675        -6.24054641        0.558283007        -5.97508289        0.327834229        -6.87060693
                      0.508744675        -6.24054641        0.342595232        -178.649024        0.521901925        -1.28829824        0.306495503         -1.2717903
                      0.558283007        -5.97508289        0.521901925        -1.28829824        0.422190373         -178.63177        0.336193314        -1.73041867
                      0.327834229        -6.87060693        0.306495503         -1.2717903        0.336193314        -1.73041867       0.0260663975         1.45439963

         293209877       0.381388669         171.531113        0.508939377        -6.68420654         0.55849052        -6.39996471        0.327951061        -7.35866186
                      0.508939377        -6.68420654        0.342968262        -178.560338        0.521520472         -1.3763856        0.306256234        -1.35970775
                       0.55849052        -6.39996471        0.521520472         -1.3763856        0.422626945        -178.541374        0.335944998        -1.84943586
                      0.327951061        -7.35866186        0.306256234        -1.35970775        0.335944998        -1.84943586       0.0259200239         1.59349967

         312500000       0.380093581         170.967298        0.509145842        -7.12878501         0.55871998        -6.82564765        0.328072541         -7.8476757
                      0.509145842        -7.12878501        0.343371939        -178.472997        0.521120106        -1.46399844        0.306007583        -1.44700491
                       0.55871998        -6.82564765        0.521120106        -1.46399844        0.423084397        -178.452051        0.335678008        -1.96806354
                      0.328072541         -7.8476757        0.306007583        -1.44700491        0.335678008        -1.96806354       0.0257619071         1.74207795

         331790123       0.378721253         170.402128        0.509364428        -7.57438788        0.558961803        -7.25233492        0.328208731         -8.3374087
                      0.509364428        -7.57438788        0.343806217        -178.387085        0.520690755        -1.55095521        0.305749523        -1.53363233
                      0.558961803        -7.25233492        0.520690755        -1.55095521        0.423572663        -178.363983        0.335392254        -2.08597967
                      0.328208731         -8.3374087        0.305749523        -1.53363233        0.335392254        -2.08597967       0.0255940846         1.90090392

         351080247        0.37726157         169.835068        0.509605288        -8.02085173        0.559226157        -7.67988334        0.328350189        -8.82844225
                      0.509605288        -8.02085173        0.344261051        -178.302653        0.520232389        -1.63726904        0.305462032         -1.6196088
                      0.559226157        -7.67988334        0.520232389        -1.63726904        0.424091703        -178.277186        0.335087707        -2.20320275
                      0.328350189        -8.82844225        0.305462032         -1.6196088        0.335087707        -2.20320275       0.0254156013         2.07100808

         370370370       0.375733611         169.266662        0.509849155        -8.46869693        0.559493754        -8.10875521        0.328506846        -9.32033199
                      0.509849155        -8.46869693        0.344736374        -178.219859        0.519755005        -1.72302991         0.30516507        -1.70477077
                      0.559493754        -8.10875521        0.519755005        -1.72302991        0.424651442         -178.19185        0.334774331        -2.31968187
                      0.328506846        -9.32033199         0.30516507        -1.70477077        0.334774331        -2.31968187       0.0252275074         2.25334734

         393518518       0.373787822         168.581846        0.510171295        -9.00734853        0.559850873        -8.62468749        0.328706672        -9.91216632
                      0.510171295        -9.00734853        0.345345381        -178.122574        0.519133301        -1.82491471        0.304781376        -1.80588429
                      0.559850873        -8.62468749        0.519133301        -1.82491471         0.42535599        -178.091341        0.334357822          -2.458752
                      0.328706672        -9.91216632        0.304781376        -1.80588429        0.334357822          -2.458752       0.0249875934           2.490031

         416666667       0.371726751         167.893983        0.510511867        -9.54782339        0.560227045        -9.14252809         0.32891385         -10.505884
                      0.510511867        -9.54782339        0.345994909        -178.028011        0.518482856        -1.92582967        0.304378348        -1.90570331
                      0.560227045        -9.14252809        0.518482856        -1.92582967        0.426101398        -177.992966        0.333932844        -2.59653198
                       0.32891385         -10.505884        0.304378348        -1.90570331        0.333932844        -2.59653198       0.0247344359         2.74765319

         439814815       0.369549204         167.203032        0.510881616        -10.0901309        0.560632892        -9.66219102        0.329138792        -11.1013398
                      0.510881616        -10.0901309        0.346674888        -177.936128        0.517793518        -2.02549561        0.303945905        -2.00404422
                      0.560632892        -9.66219102        0.517793518        -2.02549561         0.42689751         -177.89706        0.333469324        -2.73310235
                      0.329138792        -11.1013398        0.303945905        -2.00404422        0.333469324        -2.73310235       0.0244661746         3.02870229

         462962963        0.36726454         166.508696        0.511261442        -10.6346354        0.561049485        -10.1840934        0.329372288        -11.6990202
                      0.511261442        -10.6346354          0.3473952        -177.847161        0.517065223        -2.12393036        0.303494006          -2.100917
                      0.561049485        -10.1840934        0.517065223        -2.12393036         0.42773421        -177.803724        0.332987228        -2.86850595
                      0.329372288        -11.6990202        0.303494006          -2.100917        0.332987228        -2.86850595       0.0241839637         3.33529731

         486111111       0.364852262         165.810036        0.511662012        -11.1812407        0.561495878        -10.7071615        0.329624587        -12.2985673
                      0.511662012        -11.1812407         0.34815573        -177.761287        0.516297906        -2.22115129         0.30301254         -2.1960286
                      0.561495878        -10.7071615        0.516297906        -2.22115129        0.428611409         -177.71297        0.332476357        -3.00233517
                      0.329624587        -12.2985673         0.30301254         -2.1960286        0.332476357        -3.00233517       0.0238879964         3.67032282

         509259259       0.362330714         165.107545         0.51209254        -11.7290393        0.561967357        -11.2339508        0.329886804        -12.9006651
                       0.51209254        -11.7290393        0.348946405        -177.678447        0.515481394        -2.31688713        0.302511488         -2.2895124
                      0.561967357        -11.2339508        0.515481394        -2.31688713        0.429538973        -177.624995        0.331946679        -3.13469628
                      0.329886804        -12.9006651        0.302511488         -2.2895124        0.331946679        -3.13469628        0.023578472         4.03592829

         532407407       0.359689309         164.400427        0.512538795        -12.2809693        0.562460966        -11.7624301        0.330159255        -13.5051494
                      0.512538795        -12.2809693        0.349777059         -177.59904        0.514635636        -2.41117611        0.301980729        -2.38107843
                      0.562460966        -11.7624301        0.514635636        -2.41117611        0.430506735        -177.540023        0.331388086        -3.26553141
                      0.330159255        -13.5051494        0.301980729        -2.38107843        0.331388086        -3.26553141       0.0232556565          4.4357037

         555555556       0.356934535         163.689905        0.512995745        -12.8339691        0.562979415        -12.2935709        0.330452408        -14.1117693
                      0.512995745        -12.8339691        0.350637576        -177.523159        0.513750485        -2.50385334        0.301430202        -2.47066196
                      0.562979415        -12.2935709        0.513750485        -2.50385334        0.431524547        -177.458246        0.330800451        -3.39469496
                      0.330452408        -14.1117693        0.301430202        -2.47066196        0.330800451        -3.39469496       0.0229208347         4.87258543

         578703704        0.35405099          162.97199        0.513480474        -13.3910504         0.56351381        -12.8275657        0.330747914        -14.7216873
                      0.513480474        -13.3910504        0.351537863        -177.450872        0.512825863        -2.59493211        0.300859765        -2.55788951
                       0.56351381        -12.8275657        0.512825863        -2.59493211        0.432582324        -177.379611        0.330183699        -3.52221279
                      0.330747914        -14.7216873        0.300859765        -2.55788951        0.330183699        -3.52221279       0.0225723565          5.3506758

         601851852       0.351063162         162.249422         0.51397965         -13.950267        0.564062763         -13.363418        0.331065244        -15.3336994
                       0.51397965         -13.950267        0.352477797        -177.382336        0.511851612        -2.68425387        0.300259413        -2.64304383
                      0.564062763         -13.363418        0.511851612        -2.68425387        0.433679878         -177.30438         0.32954761        -3.64765248
                      0.331065244        -15.3336994        0.300259413        -2.64304383         0.32954761        -3.64765248       0.0222126033         5.87331741

         625000000       0.347942357         161.519747        0.514506164        -14.5124166        0.564641443        -13.9028529        0.331386482        -15.9491958
                      0.514506164        -14.5124166        0.353457159        -177.318031        0.510847581        -2.77161433        0.299629048        -2.72594717
                      0.564641443        -13.9028529        0.510847581        -2.77161433        0.434827056        -177.232743        0.328882186        -3.77131318
                      0.331386482        -15.9491958        0.299629048        -2.72594717        0.328882186        -3.77131318       0.0218420452         6.44511484

         648148148       0.344704442         160.784474        0.515039025        -15.0769578        0.565241309        -14.4460733        0.331721693        -16.5675554
                      0.515039025        -15.0769578        0.354465924        -177.257705        0.509803646        -2.85696121        0.298978505        -2.80613381
                      0.565241309        -14.4460733        0.509803646        -2.85696121        0.436013722        -177.164762        0.328197124        -3.89257679
                      0.331721693        -16.5675554        0.298978505        -2.80613381        0.328197124        -3.89257679       0.0214602387         7.07143545

         671296296       0.341349238         160.042563        0.515594048        -15.6457564        0.565848747        -14.9913589        0.332061974        -17.1892715
                      0.515594048        -15.6457564        0.355513957        -177.201577        0.508719667        -2.94018994        0.298307719        -2.88360241
                      0.565848747        -14.9913589        0.508719667        -2.94018994         0.43724967        -177.100754        0.327482421         -4.0117476
                      0.332061974        -17.1892715        0.298307719        -2.88360241        0.327482421         -4.0117476       0.0210678014         7.75737603

         694444444       0.337876728         159.292916        0.516166949        -16.2166474        0.566489136        -15.5401364        0.332416074        -17.8130284
                      0.516166949        -16.2166474        0.356591048        -177.150032        0.507595503        -3.02119411        0.297616629        -2.95835059
                      0.566489136        -15.5401364        0.507595503        -3.02119411        0.438514828        -177.040571        0.326737852        -4.12849506
                      0.332416074        -17.8130284        0.297616629        -2.95835059        0.326737852        -4.12849506       0.0206664523         8.50842049

         717592593       0.334274095         158.535342        0.516754664        -16.7920632         0.56713481        -16.0931871        0.332788616        -18.4409377
                      0.516754664        -16.7920632        0.357707161         -177.10296         0.50642108        -3.10003956        0.296895086        -3.03009142
                       0.56713481        -16.0931871         0.50642108        -3.10003956        0.439838963        -176.984659        0.325973367        -4.24288046
                      0.332788616        -18.4409377        0.296895086        -3.03009142        0.325973367        -4.24288046       0.0202570659         9.33147342

         740740741       0.330541441         157.768551        0.517352626        -17.3698807        0.567803472        -16.6489851        0.333160312        -19.0734276
                      0.517352626        -17.3698807        0.358862075        -177.060815        0.505216058        -3.17615631        0.296143027        -3.09882518
                      0.567803472        -16.6489851        0.505216058        -3.17615631        0.441201905        -176.933121         0.32517868        -4.35451536
                      0.333160312        -19.0734276        0.296143027        -3.09882518         0.32517868        -4.35451536       0.0198416127         10.2330188

         752314815       0.328636154         157.381744        0.517667843        -17.6607192        0.568144909        -16.9273033        0.333356643        -19.3894097
                      0.517667843        -17.6607192        0.359449075        -177.041518        0.504603366        -3.21333765        0.295761755        -3.13192532
                      0.568144909        -16.9273033        0.504603366        -3.21333765        0.441892955        -176.908836        0.324771253        -4.40935402
                      0.333356643        -19.3894097        0.295761755        -3.13192532        0.324771253        -4.40935402       0.0196303567         10.7163319

         763888889       0.326693567         156.994159        0.517977355        -17.9518781        0.568486547        -17.2078024        0.333547644        -19.7077858
                      0.517977355        -17.9518781        0.360045739        -177.023479        0.503970466        -3.24983027        0.295380306         -3.1641425
                      0.568486547        -17.2078024        0.503970466        -3.24983027        0.442603566        -176.885931        0.324353689        -4.46341123
                      0.333547644        -19.7077858        0.295380306         -3.1641425        0.324353689        -4.46341123       0.0194192662         11.2216909

         775462963       0.324721454         156.602392        0.518284363        -18.2444239        0.568835261        -17.4892213         0.33374296        -20.0279885
                      0.518284363        -18.2444239        0.360652059        -177.006693        0.503327328        -3.28557072        0.294988632        -3.19538773
                      0.568835261        -17.4892213        0.503327328        -3.28557072        0.443313864        -176.864002         0.32393602        -4.51672614
                       0.33374296        -20.0279885        0.294988632        -3.19538773         0.32393602        -4.51672614       0.0192065565         11.7513504

         787037037       0.322721122         156.210204        0.518608045        -18.5376631        0.569188158        -17.7705957        0.333939312        -20.3484032
                      0.518608045        -18.5376631        0.361268028        -176.991155        0.502683982         -3.3206061        0.294586781        -3.22585457
                      0.569188158        -17.7705957        0.502683982         -3.3206061        0.444043756        -176.843317        0.323508266        -4.56943705
                      0.333939312        -20.3484032        0.294586781        -3.22585457        0.323508266        -4.56943705       0.0189923835         12.3060062

         798611111       0.320682293         155.812743        0.518929593        -18.8322867        0.569541948        -18.0541512        0.334146096        -20.6684315
                      0.518929593        -18.8322867        0.361893588        -176.977019        0.502020389        -3.35495339        0.294184729         -3.2554324
                      0.569541948        -18.0541512        0.502020389        -3.35495339        0.444783247          -176.8238        0.323080222        -4.62105014
                      0.334146096        -20.6684315        0.294184729         -3.2554324        0.323080222        -4.62105014       0.0187789504         12.8862191

         810185185        0.31861517         155.414511        0.519245949        -19.1272606        0.569900177        -18.3376639        0.334348199        -20.9908814
                      0.519245949        -19.1272606          0.3625188        -176.964036        0.501356505        -3.38847893        0.293772428        -3.28403466
                      0.569900177        -18.3376639        0.501356505        -3.38847893        0.445532328        -176.805446        0.322642067        -4.67205984
                      0.334348199        -20.9908814        0.293772428        -3.28403466        0.322642067        -4.67205984       0.0185635115         13.4947129

         821759259       0.316514711         155.012961        0.519582702        -19.4239476        0.570269252        -18.6230386        0.334551564         -21.313554
                      0.519582702        -19.4239476        0.363163576        -176.952527        0.500672351        -3.42131613        0.293349928        -3.31185523
                      0.570269252        -18.6230386        0.500672351        -3.42131613        0.446290934         -176.78838        0.322193708         -4.7222913
                      0.334551564         -21.313554        0.293349928        -3.31185523        0.322193708         -4.7222913       0.0183492275         14.1307573

         833333333       0.314385751         154.610308        0.519905128        -19.7213578        0.570633536        -18.9086878        0.334759918        -21.6380464
                      0.519905128        -19.7213578         0.36380794        -176.942316         0.49998788        -3.45332808         0.29292709        -3.33838918
                      0.570633536        -18.9086878         0.49998788        -3.45332808        0.447059114        -176.772468        0.321735133        -4.77174609
                      0.334759918        -21.6380464         0.29292709        -3.33838918        0.321735133        -4.77174609       0.0181344371            14.7975

         844907407       0.312218809         154.201495        0.520244967        -20.0194262        0.570999672        -19.1965205        0.334960447        -21.9634042
                      0.520244967        -20.0194262        0.364471858        -176.933565        0.499293037        -3.48446669        0.292504022        -3.36402214
                      0.570999672        -19.1965205        0.499293037        -3.48446669        0.447836803        -176.757832        0.321276295        -4.82027578
                      0.334960447        -21.9634042        0.292504022        -3.36402214        0.321276295        -4.82027578       0.0179203381         15.4950164

         856481481       0.310018984         153.792831        0.520570735        -20.3182438        0.571370772        -19.4843116        0.335171764        -22.2883622
                      0.520570735        -20.3182438        0.365135356          -176.9261        0.498577889         -3.5149154        0.292070675        -3.38867036
                      0.571370772        -19.4843116        0.498577889         -3.5149154        0.448623993        -176.744467        0.320817178        -4.86787656
                      0.335171764        -22.2883622        0.292070675        -3.38867036        0.320817178        -4.86787656       0.0177072513         16.2250518

         868055556       0.307799375         153.379173        0.520917686        -20.6187385        0.571750241        -19.7730039        0.335383077        -22.6173681
                      0.520917686        -20.6187385        0.365808363        -176.920153        0.497862263        -3.54430294        0.291627043        -3.41233209
                      0.571750241        -19.7730039        0.497862263        -3.54430294        0.449430663        -176.732439        0.320347721        -4.91451962
                      0.335383077        -22.6173681        0.291627043        -3.41233209        0.320347721        -4.91451962       0.0174954956         16.9890833

         879629630       0.305528778         152.963617        0.521254495        -20.9210291         0.57212885        -20.0629336        0.335592328        -22.9450423
                      0.521254495        -20.9210291        0.366490928        -176.915562         0.49713629        -3.57292669        0.291183041        -3.43469101
                       0.57212885        -20.0629336         0.49713629        -3.57292669         0.45023678        -176.721726        0.319867994        -4.96038375
                      0.335592328        -22.9450423        0.291183041        -3.43469101        0.319867994        -4.96038375        0.017284431          17.789314

         891203704       0.303234039         152.544277        0.521596473        -21.2233185        0.572506816        -20.3541069        0.335807306        -23.2745389
                      0.521596473        -21.2233185         0.36717301        -176.912389        0.496389916        -3.60074241        0.290728741        -3.45605674
                      0.572506816        -20.3541069        0.496389916        -3.60074241         0.45105238        -176.712265        0.319377901        -5.00529119
                      0.335807306        -23.2745389        0.290728741        -3.45605674        0.319377901        -5.00529119       0.0170753827         18.6263698

         902777778       0.300915244         152.120943        0.521947317        -21.5266273        0.572887884        -20.6474655        0.336024211        -23.6042857
                      0.521947317        -21.5266273        0.367874579        -176.910797        0.495643026        -3.62748822        0.290274117        -3.47630723
                      0.572887884        -20.6474655        0.495643026        -3.62748822        0.451887384        -176.704249        0.318887389        -5.04908381
                      0.336024211        -23.6042857        0.290274117        -3.47630723        0.318887389        -5.04908381       0.0168687423         19.5017948

         914351852       0.298554205         151.695865        0.522297921        -21.8313544        0.573274612        -20.9407837        0.336247149         -23.935845
                      0.522297921        -21.8313544        0.368585649        -176.910691        0.494885691        -3.65334869        0.289809121        -3.49536048
                      0.573274612        -20.9407837        0.494885691        -3.65334869        0.452721821        -176.697527        0.318396442        -5.09175664
                      0.336247149         -23.935845        0.289809121        -3.49536048        0.318396442        -5.09175664       0.0166658316         20.4156152

         925925926       0.296160363         151.265403        0.522648521        -22.1375056        0.573670643        -21.2349914        0.336463099        -24.2683536
                      0.522648521        -22.1375056        0.369296181        -176.912135        0.494117837        -3.67820566        0.289343728        -3.51309144
                      0.573670643        -21.2349914        0.494117837        -3.67820566        0.453575654        -176.692236        0.317885215        -5.13380676
                      0.336463099        -24.2683536        0.289343728        -3.51309144        0.317885215        -5.13380676       0.0164652874         21.3723412

         937500000       0.293729086         150.830961        0.522995539        -22.4440741        0.574057543        -21.5308127        0.336685437        -24.6026801
                      0.522995539        -22.4440741        0.370016267        -176.914893        0.493339515        -3.70217195        0.288867951        -3.52961589
                      0.574057543        -21.5308127        0.493339515        -3.70217195        0.454428855         -176.68835        0.317373439        -5.17455397
                      0.336685437        -24.6026801        0.288867951        -3.52961589        0.317373439        -5.17455397       0.0162684222         22.3713805

         949074074       0.291277827         150.394189        0.523352154        -22.7516603        0.574454159        -21.8275243        0.336901087        -24.9379882
                      0.523352154        -22.7516603        0.370745748        -176.919422        0.492550586        -3.72501271        0.288391827        -3.54500511
                      0.574454159        -21.8275243        0.492550586        -3.72501271        0.455301446         -176.68588        0.316861187        -5.21417226
                      0.336901087        -24.9379882        0.288391827        -3.54500511        0.316861187        -5.21417226       0.0160757769         23.4145217

         960648148       0.288780472         149.951931        0.523704062        -23.0621175        0.574842135        -22.1258681        0.337123488        -25.2751182
                      0.523704062        -23.0621175        0.371484735        -176.925401        0.491751104        -3.74684026        0.287905308        -3.55917844
                      0.574842135        -22.1258681        0.491751104        -3.74684026        0.456173402        -176.684799        0.316338397        -5.25264181
                      0.337123488        -25.2751182        0.287905308        -3.55917844        0.316338397        -5.25264181       0.0158879312         24.5034966

         972222222       0.286249398         149.507561        0.524062147        -23.3725825        0.575240247         -22.425102        0.337348527        -25.6125262
                      0.524062147        -23.3725825         0.37222319        -176.932894        0.490940992        -3.76753462        0.287418309        -3.57180808
                      0.575240247         -22.425102        0.490940992        -3.76753462        0.457064746        -176.685119        0.315805148        -5.29014142
                      0.337348527        -25.6125262        0.287418309        -3.57180808        0.315805148        -5.29014142        0.015706277         25.6373882

         983796296       0.283694694         149.057372        0.524421298        -23.6844925        0.575635579        -22.7246828        0.337576258        -25.9502155
                      0.524421298        -23.6844925        0.372981089        -176.942055        0.490130283        -3.78713095        0.286920906        -3.58321033
                      0.575635579        -22.7246828        0.490130283        -3.78713095         0.45796538        -176.687008        0.315271384        -5.32650123
                      0.337576258        -25.9502155        0.286920906        -3.58321033        0.315271384        -5.32650123       0.0155305392         26.8191328

         995370370       0.281097629          148.60348        0.524777698        -23.9968545        0.576036042        -23.0264532        0.337802197        -26.2904607
                      0.524777698        -23.9968545        0.373738414        -176.952863        0.489298946        -3.80566247        0.286423013        -3.59305502
                      0.576036042        -23.0264532        0.489298946        -3.80566247        0.458865321        -176.690386        0.314736906        -5.36135313
                      0.337802197        -26.2904607        0.286423013        -3.59305502        0.314736906        -5.36135313       0.0153613071         28.0494495

   1.00694444e+009       0.278471941         148.144885        0.525148795         -24.311221        0.576438058        -23.3294958        0.338022153        -26.6317588
                      0.525148795         -24.311221        0.374505207        -176.965236        0.488466927        -3.82296967        0.285914708        -3.60165993
                      0.576438058        -23.3294958        0.488466927        -3.82296967        0.459784597        -176.695263        0.314181976        -5.39539569
                      0.338022153        -26.6317588        0.285914708        -3.60165993        0.314181976        -5.39539569       0.0151992932         29.3295391

   1.01851852e+009       0.275809242         147.680169        0.525508406        -24.6264969        0.576841862        -23.6338139        0.338249712        -26.9748787
                      0.525508406        -24.6264969        0.375281425        -176.979317        0.487614194        -3.83908647        0.285405968        -3.60889303
                      0.576841862        -23.6338139        0.487614194        -3.83908647        0.460713168        -176.701682         0.31363626         -5.4277491
                      0.338249712        -26.9748787        0.285405968        -3.60889303         0.31363626         -5.4277491       0.0150451481         30.6597321

   1.03009259e+009       0.273112742         147.211833        0.525869989         -24.943239        0.577243637        -23.9385032        0.338480499        -27.3183019
                      0.525869989         -24.943239        0.376067074        -176.995092        0.486760827        -3.85408531        0.284886686        -3.61447234
                      0.577243637        -23.9385032        0.486760827        -3.85408531        0.461641114        -176.709438         0.31307007        -5.45928829
                      0.338480499        -27.3183019        0.284886686        -3.61447234         0.31307007        -5.45928829       0.0149003926         32.0380724

   1.04166667e+009       0.270382344         146.739562        0.526233801          -25.26145        0.577651689        -24.2453833        0.338705717        -27.6628154
                      0.526233801          -25.26145        0.376852179        -177.012472         0.48589664        -3.86768697        0.284366965        -3.61866445
                      0.577651689        -24.2453833         0.48589664        -3.86768697        0.462588234        -176.719037        0.312503114        -5.48929922
                      0.338705717        -27.6628154        0.284366965        -3.61866445        0.312503114        -5.48929922       0.0147658448         33.4650337

   1.05324074e+009       0.267615211         146.260053        0.526595782        -25.5801511        0.578058098        -24.5526451        0.338930202        -28.0099388
                      0.526595782        -25.5801511        0.377646734        -177.031525        0.485021758         -3.8801206        0.283836696        -3.62118634
                      0.578058098        -24.5526451        0.485021758         -3.8801206         0.46353474        -176.729953        0.311935378         -5.5177738
                      0.338930202        -28.0099388        0.283836696        -3.62118634        0.311935378         -5.5177738       0.0146413103         34.9416876

   1.06481482e+009       0.264814284         145.775853         0.52696041        -25.9003325        0.578462295        -24.8625129        0.339158311        -28.3573924
                       0.52696041        -25.9003325        0.378450701         -177.05239        0.484136041        -3.89114456        0.283305986        -3.62230482
                      0.578462295        -24.8625129        0.484136041        -3.89114456        0.464500491        -176.742566        0.311356993         -5.5450648
                      0.339158311        -28.3573924        0.283305986        -3.62230482        0.311356993         -5.5450648        0.014528442         36.4654287

   1.07638889e+009       0.261985233          145.28479        0.527327947        -26.2219959        0.578865287         -25.172781        0.339390104        -28.7051769
                      0.527327947        -26.2219959        0.379264143        -177.074903        0.483239615        -3.90098842        0.282774707        -3.62160757
                      0.578865287         -25.172781        0.483239615        -3.90098842        0.465465472        -176.756847        0.310777806        -5.57080596
                      0.339390104        -28.7051769        0.282774707        -3.62160757        0.310777806        -5.57080596       0.0144271535          38.037089

   1.08796296e+009       0.259122504         144.788251        0.527698658        -26.5451428        0.579271478        -25.4843523        0.339621757        -29.0555873
                      0.527698658        -26.5451428        0.380076985        -177.099277        0.482342318        -3.90932823         0.28223288        -3.61921247
                      0.579271478        -25.4843523        0.482342318        -3.90932823        0.466449774        -176.772679        0.310187851        -5.59516888
                      0.339621757        -29.0555873         0.28223288        -3.61921247        0.310187851        -5.59516888       0.0143390931         39.6530099

   1.09953704e+009       0.256212167         144.286329         0.52806389        -26.8702648         0.57968112        -25.7972279        0.339848673        -29.4071624
                       0.52806389        -26.8702648        0.380899332        -177.125276        0.481434166        -3.91623692        0.281680569        -3.61531245
                       0.57968112        -25.7972279        0.481434166        -3.91623692        0.467433328        -176.790158         0.30958712        -5.61814824
                      0.339848673        -29.4071624        0.281680569        -3.61531245         0.30958712        -5.61814824       0.0142649651         41.3106894

   1.11111111e+009        0.25328217         143.777538        0.528428311        -27.1959179        0.580085486        -26.1118432        0.340075969        -29.7613902
                      0.528428311        -27.1959179        0.381731098        -177.153185        0.480505179        -3.92178839        0.281137736        -3.60964158
                      0.580085486        -26.1118432        0.480505179        -3.92178839        0.468426186        -176.809219        0.308985652        -5.63974067
                      0.340075969        -29.7613902        0.281137736        -3.60964158        0.308985652        -5.63974067        0.014204726          43.009929

   1.12847222e+009       0.248806626         143.001605        0.528976121        -27.6865021        0.580697946        -26.5853488         0.34041893        -30.2920558
                      0.528976121        -27.6865021         0.38298778        -177.198332        0.479115016          -3.927192          0.2803024        -3.59767881
                      0.580697946        -26.5853488        0.479115016          -3.927192         0.46993405        -176.841081        0.308076631        -5.66877048
                       0.34041893        -30.2920558          0.2803024        -3.59767881        0.308076631        -5.66877048       0.0141448095         45.6226997

   1.14583333e+009       0.244263553         142.209159           0.529528        -28.1804977        0.581310198        -27.0631478        0.340758344        -30.8288034
                         0.529528        -28.1804977         0.38425334        -177.247426        0.477692872        -3.92928403        0.279455846        -3.58168025
                      0.581310198        -27.0631478        0.477692872        -3.92928403        0.471460284        -176.876755        0.307155655        -5.69425938
                      0.340758344        -30.8288034        0.279455846        -3.58168025        0.307155655        -5.69425938       0.0141212613         48.3032152

   1.16319444e+009       0.239639393         141.398815        0.530076114        -28.6784365        0.581914212        -27.5435129        0.341101986        -31.3670587
                      0.530076114        -28.6784365        0.385547733        -177.300861        0.476258627        -3.92775039         0.27859809        -3.56160719
                      0.581914212        -27.5435129        0.476258627        -3.92775039        0.473004949          -176.9162        0.306222597        -5.71599225
                      0.341101986        -31.3670587         0.27859809        -3.56160719        0.306222597        -5.71599225       0.0141369865         51.0354218

   1.18055556e+009       0.234928405         140.570398        0.530611793        -29.1784675        0.582519603         -28.026027        0.341433224        -31.9086176
                      0.530611793        -29.1784675         0.38684103        -177.358525        0.474802239        -3.92252027        0.277739011        -3.53688034
                      0.582519603         -28.026027        0.474802239        -3.92252027        0.474568003        -176.959616        0.305277435        -5.73393724
                      0.341433224        -31.9086176        0.277739011        -3.53688034        0.305277435        -5.73393724       0.0141954075         53.8059426

   1.19791667e+009       0.230152802         139.723002        0.531154264        -29.6819969        0.583119029        -28.5133782        0.341774955        -32.4531917
                      0.531154264        -29.6819969        0.388153344        -177.420361        0.473333694        -3.91347619        0.276868655        -3.50758266
                      0.583119029        -28.5133782        0.473333694        -3.91347619        0.476149472        -177.007078          0.3043101        -5.74806244
                      0.341774955        -32.4531917        0.276868655        -3.50758266          0.3043101        -5.74806244       0.0142955692         56.5881677

   1.21527778e+009       0.225291412         138.853071        0.531695865        -30.1895738        0.583712926        -29.0034071        0.342105564        -33.0011893
                      0.531695865        -30.1895738        0.389474737        -177.486401        0.471842961         -3.9005433        0.275987118        -3.47387451
                      0.583712926        -29.0034071        0.471842961         -3.9005433        0.477739506        -177.058359        0.303340374        -5.75776744
                      0.342105564        -33.0011893        0.275987118        -3.47387451        0.303340374        -5.75776744       0.0144418679         59.3709987

   1.23263889e+009       0.220360044         137.961379        0.532218917         -30.699925        0.584302132        -29.4961542        0.342439597         -33.553172
                      0.532218917         -30.699925        0.390815217        -177.556954        0.470329927        -3.88343972        0.275094315        -3.43529359
                      0.584302132        -29.4961542        0.470329927        -3.88343972        0.479358068        -177.113779        0.302368347        -5.76319848
                      0.342439597         -33.553172        0.275094315        -3.43529359        0.302368347        -5.76319848       0.0146325244         62.1274417

         1.25e+009        0.21534466         137.041715        0.532746528          -31.21294        0.584892494        -29.9925068        0.342758341        -34.1073299
                      0.532746528          -31.21294        0.392154962        -177.631695        0.468804666        -3.86216223        0.274200277        -3.39166389
                      0.584892494        -29.9925068        0.468804666        -3.86216223        0.480985188        -177.173406        0.301373912        -5.76431792
                      0.342758341        -34.1073299        0.274200277        -3.39166389        0.301373912        -5.76431792       0.0148695074         64.8422728

   1.25868056e+009       0.212813434         136.574595         0.53300596        -31.4716568        0.585180711        -30.2422006         0.34292429        -34.3856427
                       0.53300596        -31.4716568        0.392834547        -177.670828        0.468036164         -3.8498637        0.273752788        -3.36786177
                      0.585180711        -30.2422006        0.468036164         -3.8498637        0.481803302        -177.204641        0.300870816        -5.76327083
                       0.34292429        -34.3856427        0.273752788        -3.36786177        0.300870816        -5.76327083       0.0150053387         66.1784385

   1.26736111e+009       0.210254546         136.100335        0.533267743        -31.7306815        0.585471414        -30.4921403        0.343081874        -34.6655793
                      0.533267743        -31.7306815        0.393513995         -177.71099        0.467267149        -3.83654596        0.273305056        -3.34293528
                      0.585471414        -30.4921403        0.467267149        -3.83654596        0.482621077        -177.236956        0.300377067        -5.76089002
                      0.343081874        -34.6655793        0.273305056        -3.34293528        0.300377067        -5.76089002       0.0151526856         67.4974696

   1.27604167e+009       0.207689282         135.616437        0.533531932        -31.9900158        0.585761169         -30.743668        0.343239442        -34.9462084
                      0.533531932        -31.9900158        0.394203274        -177.752378        0.466487515         -3.8220407        0.272846987        -3.31658105
                      0.585761169         -30.743668        0.466487515         -3.8220407        0.483448517        -177.270403        0.299872667        -5.75736237
                      0.343239442        -34.9462084        0.272846987        -3.31658105        0.299872667        -5.75736237       0.0153114545         68.7975844

   1.28472222e+009        0.20508975         135.126428        0.533781669        -32.2508063        0.586045058        -30.9959489        0.343405237        -35.2265732
                      0.533781669        -32.2508063        0.394882459        -177.794725        0.465707313        -3.80638206        0.272388689         -3.2890882
                      0.586045058        -30.9959489        0.465707313        -3.80638206        0.484275651        -177.304916        0.299367666        -5.75268027
                      0.343405237        -35.2265732        0.272388689         -3.2890882        0.299367666        -5.75268027       0.0154824734         70.0784204

   1.29340278e+009       0.202491369         134.627851        0.534034022        -32.5119242        0.586331748        -31.2484876        0.343554825        -35.5095666
                      0.534034022        -32.5119242        0.395571511        -177.838284        0.464926551        -3.78956416         0.27194004        -3.25991035
                      0.586331748        -31.2484876        0.464926551        -3.78956416        0.485112531        -177.340429        0.298852017        -5.74683908
                      0.343554825        -35.5095666         0.27194004        -3.25991035        0.298852017        -5.74683908       0.0156638043         71.3352118

   1.30208333e+009       0.199858901         134.122213         0.53429446        -32.7742721        0.586612765        -31.5017953        0.343718636        -35.7936589
                       0.53429446        -32.7742721        0.396260459        -177.882992        0.464145172        -3.77145792        0.271481196        -3.22970144
                      0.586612765        -31.5017953        0.464145172        -3.77145792         0.48594914        -177.376997        0.298345721         -5.7396391
                      0.343718636        -35.7936589        0.271481196        -3.22970144        0.298345721         -5.7396391       0.0158562238         72.5680286

   1.31076389e+009       0.197213794         133.607027         0.53454094         -33.038112        0.586893494        -31.7567132        0.343876918        -36.0771081
                       0.53454094         -33.038112        0.396959315        -177.928895        0.463353271        -3.75226106        0.271022036        -3.19791271
                      0.586893494        -31.7567132        0.463353271        -3.75226106        0.486785495        -177.414615         0.29782888        -5.73145829
                      0.343876918        -36.0771081        0.271022036        -3.19791271         0.29782888        -5.73145829       0.0160604954          73.777097

   1.31944445e+009       0.194542187          133.08162        0.534790387        -33.3022913         0.58716887        -32.0124167        0.344027503        -36.3622643
                      0.534790387        -33.3022913        0.397648113        -177.975882        0.462550858        -3.73196666        0.270552645        -3.16486437
                       0.58716887        -32.0124167        0.462550858        -3.73196666         0.48763156        -177.453448        0.297321297        -5.72171465
                      0.344027503        -36.3622643        0.270552645        -3.16486437        0.297321297        -5.72171465       0.0162755744         74.9592816

     1.328125e+009       0.191865292         132.547686         0.53503733        -33.5659184        0.587447475        -32.2683962        0.344178577        -36.6481576
                       0.53503733        -33.5659184        0.398346896        -178.023906        0.461757835         -3.7102832        0.270093001        -3.13031436
                      0.587447475        -32.2683962        0.461757835         -3.7102832        0.488477454        -177.493201        0.296803076        -5.71078522
                      0.344178577        -36.6481576        0.270093001        -3.13031436        0.296803076        -5.71078522       0.0165012109         76.1144991

   1.33680556e+009       0.189169112         132.004547        0.535281805        -33.8328629         0.58772093        -32.5251762        0.344330221        -36.9347928
                      0.535281805        -33.8328629        0.399045622        -178.073197        0.460954256        -3.68736468        0.269633078        -3.09416128
                       0.58772093        -32.5251762        0.460954256        -3.68736468         0.48932311        -177.534103        0.296284171        -5.69847059
                      0.344330221        -36.9347928        0.269633078        -3.09416128        0.296284171        -5.69847059       0.0167382275         77.2422222

   1.34548611e+009       0.186447201         131.449284        0.535524001        -34.0992716        0.587994779        -32.7835866        0.344476462        -37.2208501
                      0.535524001        -34.0992716        0.399754341        -178.123651        0.460150176        -3.66324777        0.269162956        -3.05672285
                      0.587994779        -32.7835866        0.460150176        -3.66324777        0.490178582        -177.576081        0.295764685        -5.68495613
                      0.344476462        -37.2208501        0.269162956        -3.05672285        0.295764685        -5.68495613       0.0169844638         78.3404189

   1.35416667e+009       0.183713077         130.885787        0.535761255        -34.3666411        0.588258359        -33.0419969        0.344629439        -37.5089886
                      0.535761255        -34.3666411        0.400453057        -178.175312        0.459345479        -3.63767714         0.26870262        -3.01776349
                      0.588258359        -33.0419969        0.459345479        -3.63767714        0.491033859        -177.619195        0.295234474        -5.67004096
                      0.344629439        -37.5089886         0.26870262        -3.01776349        0.295234474        -5.67004096       0.0172416752         79.4099037

   1.36284722e+009       0.180967911         130.309052         0.53599371        -34.6349831        0.588522668        -33.3020531         0.34477532         -37.798901
                       0.53599371        -34.6349831        0.401161813        -178.228121        0.458530327        -3.61097311        0.268232059        -2.97728822
                      0.588522668        -33.3020531        0.458530327        -3.61097311        0.491889005        -177.663324        0.294713643        -5.65371975
                       0.34477532         -37.798901        0.268232059        -2.97728822        0.294713643        -5.65371975       0.0175096469         80.4503142

   1.37152778e+009       0.178198097         129.717884        0.536235432        -34.9045743        0.588782425        -33.5629465        0.344915981        -38.0882782
                      0.536235432        -34.9045743        0.401870639        -178.282027        0.457724631        -3.58284643        0.267771312        -2.93527894
                      0.588782425        -33.5629465        0.457724631        -3.58284643        0.492743962        -177.708693        0.294192149        -5.63598405
                      0.344915981        -38.0882782        0.267771312        -2.93527894        0.294192149        -5.63598405       0.0177871875         81.4606334

   1.38020833e+009       0.175409056         129.118418        0.536466906         -35.174274        0.589037764        -33.8246873        0.345055963        -38.3807755
                      0.536466906         -35.174274        0.402579529        -178.337165        0.456908383        -3.55332157        0.267300368        -2.89173451
                      0.589037764        -33.8246873        0.456908383        -3.55332157        0.493608867        -177.754994        0.293660046        -5.61701717
                      0.345055963        -38.3807755        0.267300368        -2.89173451        0.293660046        -5.61701717       0.0180740662         82.4409688

   1.38888889e+009       0.172610133         128.503251        0.536693964        -35.4449733        0.589297103        -34.0867407        0.345198682        -38.6717322
                      0.536693964        -35.4449733        0.403288538        -178.393388         0.45608166        -3.52251436         0.26683922        -2.84642853
                      0.589297103        -34.0867407         0.45608166        -3.52251436        0.494473633        -177.802523        0.293137245         -5.5964291
                      0.345198682        -38.6717322         0.26683922        -2.84642853        0.293137245         -5.5964291       0.0183710599         83.3915772

   1.39756945e+009       0.169800187         127.876167         0.53692259        -35.7175499        0.589543989        -34.3502031        0.345334744        -38.9645274
                       0.53692259        -35.7175499        0.403997664        -178.450831        0.455264443        -3.49026245        0.266367957        -2.79978176
                      0.589543989        -34.3502031        0.455264443        -3.49026245        0.495348318        -177.851201        0.292603849         -5.5745935
                      0.345334744        -38.9645274        0.266367957        -2.79978176        0.292603849         -5.5745935       0.0186769491         84.3123006

      1.40625e+009       0.166967314           127.2309        0.537141299        -35.9902789        0.589800781        -34.6147907        0.345478403        -39.2594181
                      0.537141299        -35.9902789        0.404716931        -178.509524        0.454446767        -3.45663606        0.265896584        -2.75167828
                      0.589800781        -34.6147907        0.454446767        -3.45663606        0.496212963        -177.900934        0.292069721        -5.55111615
                      0.345478403        -39.2594181        0.265896584        -2.75167828        0.292069721        -5.55111615        0.018992521         85.2031884

   1.41493056e+009       0.164126605         126.572886        0.537356042        -36.2640411        0.590039811        -34.8800117        0.345603049        -39.5536107
                      0.537356042        -36.2640411        0.405426374        -178.569387         0.45361861        -3.42157697        0.265425021        -2.70167898
                      0.590039811        -34.8800117         0.45361861        -3.42157697        0.497087581        -177.951802        0.291535065        -5.52637907
                      0.345603049        -39.5536107        0.265425021        -2.70167898        0.291535065        -5.52637907       0.0193165453         86.0646809

   1.42361111e+009       0.161260178          125.89846        0.537580961        -36.5390692        0.590283295        -35.1455709        0.345743207        -39.8488558
                      0.537580961        -36.5390692        0.406146028        -178.630414        0.452789974        -3.38500014        0.264953384        -2.65020564
                      0.590283295        -35.1455709        0.452789974        -3.38500014        0.497962172        -178.003872        0.291009651         -5.4997945
                      0.345743207        -39.8488558        0.264953384        -2.65020564        0.291009651         -5.4997945       0.0196498063         86.8971914

   1.43229167e+009       0.158388928         125.204207        0.537788248        -36.8149232         0.59052315        -35.4120298         0.34587725        -40.1459897
                      0.537788248        -36.8149232        0.406855912        -178.692629        0.451960938        -3.34702365        0.264491634        -2.59693573
                       0.59052315        -35.4120298        0.451960938        -3.34702365        0.498836833        -178.056907        0.290473582        -5.47173109
                       0.34587725        -40.1459897        0.264491634        -2.59693573        0.290473582        -5.47173109        0.019991097         87.7005695

   1.44097222e+009       0.155505989         124.491255        0.538000013        -37.0912005         0.59075723        -35.6807515         0.34599888        -40.4437736
                      0.538000013        -37.0912005        0.407576053        -178.756064        0.451131468        -3.30751287        0.264019813        -2.54205826
                       0.59075723        -35.6807515        0.451131468        -3.30751287        0.499711491        -178.111245        0.289937014        -5.44238359
                       0.34599888        -40.4437736        0.264019813        -2.54205826        0.289937014        -5.44238359       0.0203421971         88.4758439

   1.44965278e+009        0.15260313         123.760045        0.538200435        -37.3691923        0.590990328        -35.9490387        0.346122273        -40.7424205
                      0.538200435        -37.3691923        0.408296485        -178.820691        0.450301585        -3.26645921        0.263547931        -2.48546396
                      0.590990328        -35.9490387        0.450301585        -3.26645921        0.500596272        -178.166575        0.289399767        -5.41135047
                      0.346122273        -40.7424205        0.263547931        -2.48546396        0.289399767        -5.41135047        0.020699903          89.223075

   1.45833333e+009       0.149689818          123.00734        0.538399492         -37.646778         0.59121217        -36.2188263         0.34624752         -41.041933
                      0.538399492         -37.646778        0.409017234        -178.886534        0.449461332        -3.22392567        0.263076011        -2.42714352
                       0.59121217        -36.2188263        0.449461332        -3.22392567        0.501481115        -178.223194        0.288861856        -5.37862212
                       0.34624752         -41.041933        0.263076011        -2.42714352        0.288861856        -5.37862212       0.0210670104         89.9429871

   1.46701389e+009       0.146767927         122.232232        0.538601546        -37.9262989        0.591431031        -36.4895576        0.346368109        -41.3410714
                      0.538601546        -37.9262989        0.409738333        -178.953584        0.448630758        -3.17988679        0.262614066        -2.36699744
                      0.591431031        -36.4895576        0.448630758        -3.17988679        0.502366116        -178.280867        0.288323388        -5.34438667
                      0.346368109        -41.3410714        0.262614066        -2.36699744        0.288323388        -5.34438667       0.0214413211         90.6360265

   1.47569445e+009       0.143837245         121.432398        0.538794508        -38.2060832        0.591655075        -36.7606622        0.346483185        -41.6421909
                      0.538794508        -38.2060832        0.410459815        -179.021837        0.447789807        -3.13422144        0.262142139        -2.30519869
                      0.591655075        -36.7606622        0.447789807        -3.13422144        0.503251276        -178.339703        0.287784375        -5.30863544
                      0.346483185        -41.6421909        0.262142139        -2.30519869        0.287784375        -5.30863544       0.0218236408         91.3027305

     1.484375e+009       0.140891193         120.608763        0.538984654        -38.4869836        0.591868407        -37.0333046        0.346600388        -41.9442072
                      0.538984654        -38.4869836        0.411181712        -179.091298         0.44694855        -3.08697619        0.261670243        -2.24164555
                      0.591868407        -37.0333046         0.44694855        -3.08697619         0.50413663        -178.399695        0.287244739        -5.27116108
                      0.346600388        -41.9442072        0.261670243        -2.24164555        0.287244739        -5.27116108       0.0222127817         91.9438004

   1.49305556e+009        0.13793928         119.757298        0.539164355        -38.7696754        0.592079223        -37.3069173        0.346712409        -42.2482329
                      0.539164355        -38.7696754        0.411914057        -179.161998        0.446117001        -3.03807392        0.261208413        -2.17633283
                      0.592079223        -37.3069173        0.446117001        -3.03807392        0.505022212        -178.460839        0.286704497        -5.23195359
                      0.346712409        -42.2482329        0.261208413        -2.17633283        0.286704497        -5.23195359       0.0226095614         92.5598254

   1.50173611e+009       0.134983164         118.876252        0.539349406        -39.0528412        0.592281582        -37.5807423        0.346820057        -42.5519538
                      0.539349406        -39.0528412        0.412636887        -179.233885        0.445275166        -2.98751414         0.26073665        -2.10920084
                      0.592281582        -37.5807423        0.445275166        -2.98751414        0.505908058        -178.523126        0.286173625        -5.19082174
                      0.346820057        -42.5519538         0.26073665        -2.10920084        0.286173625        -5.19082174       0.0230137984         93.1512159

   1.51041667e+009       0.132024122         117.963354        0.539525814        -39.3363308        0.592473773        -37.8561543        0.346930113        -42.8566011
                      0.539525814        -39.3363308        0.413360235        -179.307003        0.444433167        -2.93547537        0.260274987        -2.04018517
                      0.592473773        -37.8561543        0.444433167        -2.93547537        0.506804176        -178.586693        0.285632314        -5.14831859
                      0.346930113        -42.8566011        0.260274987        -2.04018517        0.285632314        -5.14831859       0.0234253207         93.7186523

   1.51909722e+009       0.129055582         117.018932        0.539700016        -39.6209821        0.592671779        -38.1319783        0.347035383        -43.1633053
                      0.539700016        -39.6209821        0.414084139        -179.381333        0.443590882        -2.88156208        0.259813456        -1.96933748
                      0.592671779        -38.1319783        0.443590882        -2.88156208        0.507690659         -178.65125        0.285090448        -5.10405264
                      0.347035383        -43.1633053        0.259813456        -1.96933748        0.285090448        -5.10405264       0.0238439654         94.2629148

   1.52777778e+009       0.126077947         116.039478        0.539864517        -39.9074852        0.592860002        -38.4094129        0.347136453        -43.4697523
                      0.539864517        -39.9074852        0.414808635        -179.456895        0.442758486         -2.8260874        0.259352085          -1.896648
                      0.592860002        -38.4094129        0.442758486         -2.8260874         0.50858749        -178.717071        0.284558008        -5.05783603
                      0.347136453        -43.4697523        0.259352085          -1.896648        0.284558008        -5.05783603       0.0242685649         94.7845027

   1.53645833e+009       0.123102684          115.02083        0.540028416        -40.1936809        0.593040255        -38.6871185        0.347233008        -43.7782954
                      0.540028416        -40.1936809        0.415533762        -179.533682        0.441915891        -2.76878292        0.258890901         -1.8220848
                      0.593040255        -38.6871185        0.441915891        -2.76878292        0.509474717        -178.784098        0.284015181        -5.01021565
                      0.347233008        -43.7782954        0.258890901         -1.8220848        0.284015181        -5.01021565       0.0246999745         95.2842725

   1.54513889e+009       0.120132103         113.960261        0.540190569         -40.481073        0.593225169        -38.9666145        0.347325486        -44.0866208
                      0.540190569         -40.481073         0.41625956        -179.611689        0.441073218        -2.70983226        0.258429934        -1.74563789
                      0.593225169        -38.9666145        0.441073218        -2.70983226        0.510372416        -178.852149        0.283471773        -4.96060065
                      0.347325486        -44.0866208        0.258429934        -1.74563789        0.283471773        -4.96060065       0.0251380329         95.7625289

   1.55381945e+009       0.117159074         112.856261        0.540337053        -40.7695595        0.593396049        -39.2456558         0.34742087        -44.3959268
                      0.540337053        -40.7695595        0.416976067        -179.690913        0.440230506        -2.64922586        0.257969216        -1.66729724
                      0.593396049        -39.2456558        0.440230506        -2.64922586        0.511260572        -178.921498        0.282937943        -4.90920944
                       0.34742087        -44.3959268        0.257969216        -1.66729724        0.282937943        -4.90920944       0.0255825907         96.2198177

       1.5625e+009       0.114195002         111.703115        0.540482147        -41.0592749        0.593564219        -39.5271174        0.347505125         -44.706202
                      0.540482147        -41.0592749        0.417703326        -179.771367        0.439397692        -2.58663475        0.257508778        -1.58703055
                      0.593564219        -39.5271174        0.439397692        -2.58663475        0.512159259         -178.99199        0.282403663        -4.85600671
                      0.347505125         -44.706202        0.257508778        -1.58703055        0.282403663        -4.85600671       0.0260335146         96.6569025

   1.57118056e+009       0.111233854         110.499496        0.540633546        -41.3495275        0.593724938        -39.8089072        0.347585428        -45.0186495
                      0.540633546        -41.3495275        0.418431376         -179.85306        0.438554929        -2.52242781        0.257058651        -1.50479132
                      0.593724938        -39.8089072        0.438554929        -2.52242781        0.513048513        -179.063624        0.281868875        -4.80077932
                      0.347585428        -45.0186495        0.257058651        -1.50479132        0.281868875        -4.80077932       0.0264906668         97.0743132

   1.57986111e+009       0.108287685         109.239107        0.540769747        -41.6409304        0.593878271        -40.0910421        0.347676062        -45.3309433
                      0.540769747        -41.6409304        0.419150262        -179.935972        0.437722195        -2.45634826        0.256598875        -1.42066734
                      0.593878271        -40.0910421        0.437722195        -2.45634826        0.513948371        -179.136464         0.28133377        -4.74392131
                      0.347676062        -45.3309433        0.256598875        -1.42066734         0.28133377        -4.74392131       0.0269539135          97.472575

   1.58854167e+009       0.105350179         107.918819        0.540898367        -41.9328066        0.594030759        -40.3742741        0.347748896        -45.6454474
                      0.540898367        -41.9328066        0.419870026         179.979884        0.436879554        -2.38849919        0.256149477        -1.33451222
                      0.594030759        -40.3742741        0.436879554        -2.38849919        0.514838881        -179.210459        0.280798208        -4.68501637
                      0.347748896        -45.6454474        0.256149477        -1.33451222        0.280798208        -4.68501637        0.027422135         97.8524925

   1.59722222e+009       0.102428841         106.533045        0.541026207        -42.2259599        0.594174997        -40.6592387        0.347825015        -45.9586651
                      0.541026207        -42.2259599        0.420590713         179.894511        0.436046994        -2.31862801        0.255700502        -1.24641911
                      0.594174997        -40.6592387        0.436046994        -2.31862801        0.515730085        -179.285631         0.28026238        -4.62445998
                      0.347825015        -45.9586651        0.255700502        -1.24641911         0.28026238        -4.62445998       0.0278962273         98.2147145

   1.60590278e+009      0.0995265742         105.076078        0.541139334        -42.5203334        0.594312266        -40.9445932        0.347897699        -46.2741167
                      0.541139334        -42.5203334        0.421312368         179.807909        0.435214653        -2.24704257        0.255251979         -1.1563107
                      0.594312266        -40.9445932        0.435214653        -2.24704257         0.51662203        -179.361986        0.279736119        -4.56167115
                      0.347897699        -46.2741167        0.255251979         -1.1563107        0.279736119        -4.56167115       0.0283770327         98.5590196

   1.61458333e+009      0.0966494187         103.543071        0.541259403        -42.8152955        0.594442636        -41.2303545        0.347959916        -46.5906876
                      0.541259403        -42.8152955        0.422035037         179.720074        0.434382539        -2.17360123        0.254813953        -1.06420231
                      0.594442636        -41.2303545        0.434382539        -2.17360123         0.51751476        -179.439527        0.279199676        -4.49737459
                      0.347959916        -46.5906876        0.254813953        -1.06420231        0.279199676        -4.49737459       0.0288624715         98.8866902

   1.62326389e+009      0.0937997339         101.926283        0.541365075        -43.1115161        0.594565324        -41.5178996        0.348025919         -46.908338
                      0.541365075        -43.1115161        0.422758766         179.631022        0.433550666        -2.09816125        0.254366459       -0.970103505
                      0.594565324        -41.5178996        0.433550666        -2.09816125        0.518408326        -179.518238        0.278672861        -4.43082676
                      0.348025919         -46.908338        0.254366459       -0.970103505        0.278672861        -4.43082676        0.029353439         99.1980964

   1.63194445e+009      0.0909851727         100.218501         0.54146381        -43.4082988        0.594681406        -41.8058851        0.348074352         -47.226039
                       0.54146381        -43.4082988        0.423473604         179.540734        0.432729152        -2.02092905        0.253929539       -0.873946724
                      0.594681406        -41.8058851        0.432729152        -2.02092905        0.519302773        -179.598134        0.278145815        -4.36238378
                      0.348074352         -47.226039        0.253929539       -0.873946724        0.278145815        -4.36238378       0.0298498135         99.4934994

     1.640625e+009      0.0882112322          98.413024         0.54156261        -43.7064273        0.594790962        -42.0943276        0.348134112         -47.545967
                       0.54156261        -43.7064273        0.424189599         179.449225        0.431897993        -1.94172459        0.253493235       -0.775763713
                      0.594790962        -42.0943276        0.431897993        -1.94172459        0.520198153        -179.679209         0.27762854        -4.29188015
                      0.348134112         -47.545967        0.253493235       -0.775763713         0.27762854        -4.29188015       0.0303514923         99.7733493

   1.64930556e+009      0.0854847648         96.5015177        0.541647786         -44.004387        0.594893426        -42.3846043        0.348183182        -47.8647876
                      0.541647786         -44.004387          0.4249068         179.356488        0.431077267        -1.86057755         0.25306759        -0.67554039
                      0.594893426        -42.3846043        0.431077267        -1.86057755        0.521084516        -179.761452        0.277101126        -4.21961594
                      0.348183182        -47.8647876         0.25306759        -0.67554039        0.277101126        -4.21961594       0.0308584115         100.038451

   1.65798611e+009      0.0828124351         94.4748155        0.541733293        -44.3037223        0.594989672         -42.675371        0.348229695         -48.185961
                      0.541733293        -44.3037223        0.425615257         179.262511        0.430257006        -1.77739075        0.252632645       -0.573256195
                      0.594989672         -42.675371        0.430257006        -1.77739075        0.521971913        -179.844876        0.276583477        -4.14506691
                      0.348229695         -48.185961        0.252632645       -0.573256195        0.276583477        -4.14506691       0.0313704429         100.288853

   1.66666667e+009        0.08020396         92.3238591        0.541812222        -44.6051827        0.595086601        -42.9673486        0.348266406        -48.5084132
                      0.541812222        -44.6051827        0.426325021         179.167316        0.429447297         -1.6922466        0.252208447       -0.468919818
                      0.595086601        -42.9673486        0.429447297         -1.6922466        0.522860396        -179.929484        0.276065801         -4.0687893
                      0.348266406        -48.5084132        0.252208447       -0.468919818        0.276065801         -4.0687893         0.03188653         100.525479

   1.67534722e+009      0.0776680182         90.0392494         0.54187786         -44.906542        0.595163424        -43.2598006        0.348307563        -48.8320254
                       0.54187786         -44.906542        0.427036143         179.070907        0.428628207        -1.60521501        0.251785039       -0.362502816
                      0.595163424        -43.2598006        0.428628207        -1.60521501        0.523750019         179.984734         0.27554799        -3.99035834
                      0.348307563        -48.8320254        0.251785039       -0.362502816         0.27554799        -3.99035834        0.032408572         100.748241

   1.68402778e+009      0.0752153581          87.611278        0.541937299        -45.2085757        0.595241255        -43.5534959        0.348345723        -49.1557194
                      0.541937299        -45.2085757        0.427748676         178.973279        0.427819788        -1.51620834         0.25137247        -0.25400803
                      0.595241255        -43.5534959        0.427819788        -1.51620834        0.524630835         179.897776        0.275040129        -3.90982744
                      0.348345723        -49.1557194         0.25137247        -0.25400803        0.275040129        -3.90982744       0.0329345019         100.958002

   1.69270833e+009      0.0728588946         85.0303683        0.541997778        -45.5120431        0.595306159        -43.8484127        0.348366801        -49.4796955
                      0.541997778        -45.5120431        0.428452673         178.874426         0.42702208        -1.42508772        0.250960787       -0.143449191
                      0.595306159        -43.8484127         0.42702208        -1.42508772          0.5255129         179.809647        0.274532212        -3.82712461
                      0.348366801        -49.4796955        0.250960787       -0.143449191        0.274532212        -3.82712461       0.0334662235         101.154643

   1.70138889e+009      0.0706097402         82.2874961        0.542038208        -45.8162347        0.595365514        -44.1439074        0.348386108        -49.8061345
                      0.542038208        -45.8162347        0.429158186         178.774362        0.426215158        -1.33192388        0.250550036      -0.0307963356
                      0.595365514        -44.1439074        0.426215158        -1.33192388         0.52639627         179.720343        0.274024412        -3.74265486
                      0.348386108        -49.8061345        0.250550036      -0.0307963356        0.274024412        -3.74265486       0.0340016982         101.339179

   1.71006945e+009      0.0684833401          79.374126        0.542086981        -46.1211343        0.595412419        -44.4393086        0.348416722        -50.1325267
                      0.542086981        -46.1211343        0.429855273         178.673064        0.425419103        -1.23674849        0.250140268       0.0839485415
                      0.595412419        -44.4393086        0.425419103        -1.23674849        0.527281003          179.62986        0.273526615        -3.65585661
                      0.348416722        -50.1325267        0.250140268       0.0839485415        0.273526615        -3.65585661       0.0345418152         101.511459

      1.71875e+009      0.0664958286         76.2855867        0.542115935        -46.4268104        0.595453837        -44.7366872        0.348424118        -50.4605615
                      0.542115935        -46.4268104        0.430553998         178.570498        0.424633978        -1.13951684        0.249741534         0.20078677
                      0.595453837        -44.7366872        0.424633978        -1.13951684        0.528157154         179.538218        0.273028951        -3.56706649
                      0.348424118        -50.4605615        0.249741534         0.20078677        0.273028951        -3.56706649       0.0350865445         101.672143

   1.72743056e+009      0.0646624101         73.0152497        0.542139754        -46.7347539        0.595490085        -45.0346979        0.348428865        -50.7888063
                      0.542139754        -46.7347539        0.431254374         178.466896        0.423839853        -1.04024681        0.249353882        0.319713335
                      0.595490085        -45.0346979        0.423839853        -1.04024681        0.529024784         179.445396         0.27253146        -3.47627353
                      0.348428865        -50.7888063        0.249353882        0.319713335         0.27253146        -3.47627353       0.0356357795         101.821228

   1.73611111e+009       0.063000931         69.5644475        0.542157781        -47.0419945        0.595514239        -45.3340407        0.348438769        -51.1183113
                      0.542157781        -47.0419945        0.431946503         178.362002        0.423066798        -0.93886729        0.248957365        0.440728073
                      0.595514239        -45.3340407        0.423066798        -0.93886729         0.52990395         179.351421        0.272034124        -3.38325644
                      0.348438769        -51.1183113        0.248957365        0.440728073        0.272034124        -3.38325644        0.036188519         101.959673

   1.74479167e+009      0.0615285518          65.935681        0.542171072        -47.3515377        0.595533512        -45.6340539        0.348432092         -51.448309
                      0.542171072        -47.3515377        0.432640439         178.255856         0.42228489       -0.835440914        0.248572037        0.563857464
                      0.595533512        -45.6340539         0.42228489       -0.835440914        0.530774715         179.256275        0.271547089        -3.28830323
                      0.348432092         -51.448309        0.248572037        0.563857464        0.271547089        -3.28830323       0.0367466392          102.08696

   1.75347222e+009      0.0602645211         62.1371793        0.542171931        -47.6611954        0.595541063        -45.9354443        0.348430786        -51.7796002
                      0.542171931        -47.6611954        0.433326217         178.148553        0.421514204       -0.729914832        0.248197948        0.689049069
                      0.595541063        -45.9354443        0.421514204       -0.729914832        0.531637137         179.159971        0.271070287        -3.19099196
                      0.348430786        -51.7796002        0.248197948        0.689049069        0.271070287        -3.19099196       0.0373081259         102.204035

   1.76215278e+009      0.0592256925         58.1844292        0.542160381         -47.970998        0.595536814        -46.2368773        0.348420954        -52.1124686
                      0.542160381         -47.970998        0.434013919         178.040007        0.420754816       -0.622285619        0.247815154         0.81636163
                      0.595536814        -46.2368773        0.420754816       -0.622285619        0.532501281         179.062505        0.270593837        -3.09164659
                      0.348420954        -52.1124686        0.247815154         0.81636163        0.270593837        -3.09164659       0.0378739237         102.310999

   1.77083333e+009      0.0584285269         54.0974251        0.542151373        -48.2823824        0.595528032        -46.5390412        0.348400932        -52.4446435
                      0.542151373        -48.2823824        0.434693578         177.930307        0.419996805       -0.512548767        0.247453709        0.945727506
                      0.595528032        -46.5390412        0.419996805       -0.512548767        0.533367206         178.963894        0.270117787        -2.99025645
                      0.348400932        -52.4446435        0.247453709        0.945727506        0.270117787        -2.99025645       0.0384439804         102.408117

   1.77951389e+009      0.0578862251         49.9024397        0.542123535         -48.594748        0.595507999         -46.842653        0.348380524        -52.7794646
                      0.542123535         -48.594748        0.435365251         177.819455        0.419250253       -0.400711325        0.247083667          1.0772072
                      0.595507999         -46.842653        0.419250253       -0.400711325        0.534224974         178.864145        0.269642132        -2.88659866
                      0.348380524        -52.7794646        0.247083667          1.0772072        0.269642132        -2.88659866       0.0390172704         102.495965

   1.78819445e+009      0.0576107896         45.6322259        0.542091129        -48.9080349        0.595483755         -47.147033        0.348350014        -53.1136546
                      0.542091129        -48.9080349        0.436039028         177.707368        0.418505242       -0.286764009        0.246735085         1.21072384
                      0.595483755         -47.147033        0.418505242       -0.286764009        0.535074651         178.763237        0.269186999        -2.78088003
                      0.348350014        -53.1136546        0.246735085         1.21072384        0.269186999        -2.78088003        0.039594702         102.574325

     1.796875e+009      0.0576106618         41.3223327        0.542054298        -49.2222602        0.595448059        -47.4515456        0.348325402        -53.4492131
                      0.542054298        -49.2222602        0.436714973         177.594055        0.417761854       -0.170696372        0.246378017         1.34634602
                      0.595448059        -47.4515456        0.417761854       -0.170696372        0.535926309         178.661154        0.268722377        -2.67298631
                      0.348325402        -53.4492131        0.246378017         1.34634602        0.268722377        -2.67298631       0.0401762522         102.643583

   1.80555556e+009      0.0578889776         37.0118283        0.542005576        -49.5367553        0.595401613        -47.7575764        0.348278879        -53.7868455
                      0.542005576        -49.5367553        0.437383114         177.479595        0.417040175       -0.052495471         0.24603252         1.48400032
                      0.595401613        -47.7575764        0.417040175       -0.052495471        0.536780016           178.5579        0.268268388        -2.56313012
                      0.348278879        -53.7868455         0.24603252         1.48400032        0.268268388        -2.56313012       0.0407609255         102.704417

   1.81423611e+009      0.0584462822         32.7384069        0.541952648         -49.852232        0.595344668        -48.0651507         0.34823635        -54.1235921
                      0.541952648         -49.852232        0.438043511         177.363988        0.416320292       0.0678198837         0.24569865         1.62367661
                      0.595344668        -48.0651507        0.416320292       0.0678198837        0.537615791         178.453639        0.267824994        -2.45088674
                       0.34823635        -54.1235921         0.24569865         1.62367661        0.267824994        -2.45088674       0.0413496366         102.756594

   1.82291667e+009      0.0592779515         28.5374081        0.541881578        -50.1688422        0.595276647        -48.3729351         0.34818609        -54.4621309
                      0.541881578        -50.1688422        0.438706215         177.247294        0.415602291         0.19026375        0.245366469           1.765436
                      0.595276647        -48.3729351        0.415602291         0.19026375        0.538453773         178.348106        0.267382346        -2.33677278
                       0.34818609        -54.4621309        0.245366469           1.765436        0.267382346        -2.33677278        0.041942348          102.80033

   1.83159722e+009      0.0603772428         24.4426197         0.54180662        -50.4864844        0.595197581        -48.6809559        0.348134054        -54.8011518
                       0.54180662        -50.4864844        0.439361346         177.129324        0.414896263        0.314820492        0.245046024         1.90916022
                      0.595197581        -48.6809559        0.414896263        0.314820492        0.539293975         178.241522        0.266940414        -2.22035053
                      0.348134054        -54.8011518        0.245046024         1.90916022        0.266940414        -2.22035053       0.0425380499         102.836135

   1.84027778e+009      0.0617337592         20.4795717        0.541727928        -50.8051758        0.595116036         -48.991229        0.348066367        -55.1410819
                      0.541727928        -50.8051758        0.440008869         177.010338        0.414202297        0.441505879        0.244727381         2.05492111
                      0.595116036         -48.991229        0.414202297        0.441505879        0.540126465         178.133856        0.266509305        -2.10185242
                      0.348066367        -55.1410819        0.244727381         2.05492111        0.266509305        -2.10185242       0.0431367321         102.864328

   1.84895833e+009      0.0633337809         16.6701295        0.541630093        -51.1236051        0.595016161        -49.3011544         0.34800527        -55.4824888
                      0.541630093        -51.1236051        0.440658935         176.890144        0.413520484        0.570292409         0.24442059          2.2026342
                      0.595016161        -49.3011544        0.413520484        0.570292409        0.540951346         178.025004        0.266089061        -1.98119626
                       0.34800527        -55.4824888         0.24442059          2.2026342        0.266089061        -1.98119626       0.0437393393         102.884798

   1.85763889e+009      0.0651631715         13.0275028        0.541522475        -51.4439623        0.594913126        -49.6120179        0.347928751        -55.8248782
                      0.541522475        -51.4439623        0.441291642         176.768603        0.412840917         0.70121059        0.244115728          2.3524295
                      0.594913126        -49.6120179        0.412840917         0.70121059        0.541768688         177.914965        0.265669747        -1.85847763
                      0.347928751        -55.8248782        0.244115728          2.3524295        0.265669747        -1.85847763       0.0443448464          102.89789

   1.86631945e+009      0.0672055842         9.56127347        0.541417749        -51.7646131        0.594792991        -49.9239508        0.347842482          -56.16694
                      0.541417749        -51.7646131        0.441936898         176.646192        0.412173689        0.834235325        0.243822834         2.50413914
                      0.594792991        -49.9239508        0.412173689        0.834235325        0.542588483         177.803993        0.265261416        -1.73362215
                      0.347842482          -56.16694        0.243822834         2.50413914        0.265261416        -1.73362215       0.0449542688         102.903863

        1.875e+009      0.0694469872         6.27433799        0.541295774        -52.0865823        0.594662326        -50.2362492        0.347763099        -56.5105334
                      0.541295774        -52.0865823        0.442564869          176.52256        0.411518893        0.969351647        0.243541922         2.65751364
                      0.594662326        -50.2362492        0.411518893        0.969351647        0.543400879         177.691838        0.264864128        -1.60665655
                      0.347763099        -56.5105334        0.243541922         2.65751364        0.264864128        -1.60665655       0.0455665632         102.902915

   1.88368056e+009      0.0718707203         3.16636039         0.54116285        -52.4090725        0.594522551        -50.5502957        0.347668546        -56.8552288
                       0.54116285        -52.4090725        0.443195585          176.39786        0.410876625           1.106558        0.243263151         2.81312324
                      0.594522551        -50.5502957        0.410876625           1.106558         0.54420595         177.578501        0.264467945         -1.4776425
                      0.347668546        -56.8552288        0.243263151         2.81312324        0.264467945         -1.4776425       0.0461816406         102.894837

   1.89236111e+009      0.0744626168        0.233215357        0.541019052         -52.732114         0.59437251         -50.864759        0.347572761        -57.2005919
                      0.541019052         -52.732114        0.443809152          176.27193        0.410236981         1.24586876        0.242996476         2.97037944
                       0.59437251         -50.864759        0.410236981         1.24586876        0.545013676         177.464239        0.264072929        -1.34659348
                      0.347572761        -57.2005919        0.242996476         2.97037944        0.264072929        -1.34659348       0.0468004781         102.879639

   1.90104167e+009      0.0772073411         -2.5313938        0.540864456        -53.0557369        0.594212261        -51.1796652        0.347462002         -57.547146
                      0.540864456        -53.0557369        0.444425596         176.144933        0.409610055         1.38724406        0.242732018         3.12962985
                      0.594212261        -51.1796652        0.409610055         1.38724406        0.545804232         177.348751        0.263689136        -1.21345542
                      0.347462002         -57.547146        0.242732018         3.12962985        0.263689136        -1.21345542       0.0474211307         102.858141

   1.90972222e+009      0.0800924992        -5.13543303        0.540701203        -53.3814538        0.594041869        -51.4950403        0.347355491        -57.8930317
                      0.540701203        -53.3814538        0.445034937         176.016915        0.408995939         1.53065298        0.242479824         3.29074215
                      0.594041869        -51.4950403        0.408995939         1.53065298        0.546597578         177.232341        0.263316627         -1.0782573
                      0.347355491        -57.8930317        0.242479824         3.29074215        0.263316627         -1.0782573       0.0480457763         102.831224

   1.91840278e+009       0.083104746         -7.5880828        0.540525335         -53.706329        0.593863078        -51.8122653        0.347228851        -58.2415889
                      0.540525335         -53.706329        0.445647354         175.887709        0.408394754         1.67620426        0.242239955         3.45369889
                      0.593863078        -51.8122653        0.408394754         1.67620426        0.547383891         177.114752        0.262955465       -0.941028846
                      0.347228851        -58.2415889        0.242239955         3.45369889        0.262955465       -0.941028846       0.0486730034         102.797066

   1.92708333e+009      0.0862348713        -9.89913411        0.540341144         -54.033357        0.593666542         -52.129418        0.347106536        -58.5895272
                      0.540341144         -54.033357        0.446242751         175.757516        0.407806558         1.82368376        0.242002428         3.61839506
                      0.593666542         -52.129418        0.407806558         1.82368376        0.548163145         176.996195        0.262595714       -0.801831074
                      0.347106536        -58.5895272        0.242002428         3.61839506        0.262595714       -0.801831074       0.0493022897         102.758473

   1.93576389e+009      0.0894724869        -12.0776719        0.540152486        -54.3602233        0.593454067        -52.4478903        0.346969579         -58.938823
                      0.540152486        -54.3602233        0.446841284         175.626264        0.407231478         1.97322727        0.241777278         3.78467589
                      0.593454067        -52.4478903        0.407231478         1.97322727        0.548935517         176.876458        0.262247432       -0.660632159
                      0.346969579         -58.938823        0.241777278         3.78467589        0.262247432       -0.660632159       0.0499351544         102.712875

   1.94444445e+009       0.092806147        -14.1331216        0.539939598         -54.688065        0.593237967         -52.766181        0.346831822        -59.2889582
                      0.539939598         -54.688065        0.447423083         175.493758        0.406659588         2.12474148        0.241564627          3.9527582
                      0.593237967         -52.766181        0.406659588         2.12474148        0.549700975          176.75575        0.261910682       -0.517463734
                      0.346831822        -59.2889582        0.241564627          3.9527582        0.261910682       -0.517463734       0.0505698806         102.662145

     1.953125e+009      0.0962299782        -16.0758433        0.539730476        -55.0164156        0.593014172        -53.0864311        0.346684716        -59.6391139
                      0.539730476        -55.0164156        0.448008077         175.360323         0.40611101         2.27826096        0.241354491         4.12255592
                      0.593014172        -53.0864311         0.40611101         2.27826096        0.550459647         176.633967        0.261575524        -0.37237242
                      0.346684716        -59.6391139        0.241354491         4.12255592        0.261575524        -0.37237242       0.0512082152           102.6049

   1.96180556e+009      0.0997366862        -17.9128407        0.539497356         -55.345819        0.592772909        -53.4067364        0.346536908        -59.9901586
                      0.539497356         -55.345819        0.448586278         175.225985        0.405565824         2.43374725        0.241166945         4.29395079
                      0.592772909        -53.4067364        0.405565824         2.43374725        0.551211546         176.511212        0.261262021       -0.225335336
                      0.346536908        -59.9901586        0.241166945         4.29395079        0.261262021       -0.225335336       0.0518484418         102.542951

   1.97048611e+009       0.103318236        -19.6540106        0.539262547        -55.6766522        0.592508251         -53.727915        0.346374843        -60.3427275
                      0.539262547        -55.6766522        0.449147953         175.090376        0.405044108         2.59107757        0.240971981         4.46698128
                      0.592508251         -53.727915        0.405044108         2.59107757        0.551956808         176.387379        0.260950232      -0.0764309217
                      0.346374843        -60.3427275        0.240971981         4.46698128        0.260950232      -0.0764309217       0.0524905763         102.476477

   1.97916667e+009       0.106968607        -21.3054742        0.539015268         -56.006861        0.592248262        -54.0495858        0.346203571        -60.6954362
                      0.539015268         -56.006861        0.449713017         174.953839        0.404536019         2.75044225        0.240799718         4.64156552
                      0.592248262        -54.0495858        0.404536019         2.75044225        0.552695445         176.262572        0.260640219       0.0743367477
                      0.346203571        -60.6954362        0.240799718         4.64156552        0.260640219       0.0743367477       0.0531351823         102.403311

   1.98784722e+009       0.110675732        -22.8771978        0.538752634        -56.3388385        0.591965096        -54.3721976         0.34603184        -61.0491281
                      0.538752634        -56.3388385        0.450271574         174.816262        0.404031575         2.91162278        0.240640079         4.81738448
                      0.591965096        -54.3721976        0.404031575         2.91162278        0.553427528         176.136789        0.260352042        0.226937196
                       0.34603184        -61.0491281        0.240640079         4.81738448        0.260352042        0.226937196       0.0537827129         102.325786

   1.99652778e+009       0.114448882        -24.3717804        0.538485899        -56.6708483        0.591672835        -54.6955692        0.345846175        -61.4044809
                      0.538485899        -56.6708483         0.45081364         174.677653        0.403550898         3.07461229        0.240483319         4.99509664
                      0.591672835        -54.6955692        0.403550898         3.07461229        0.554153201         176.009926         0.26006576        0.381319969
                      0.345846175        -61.4044809        0.240483319         4.99509664         0.26006576        0.381319969       0.0544322108         102.244291

   2.00520833e+009         0.1182866        -25.7951543         0.53820121        -57.0032225        0.591371586        -55.0197269        0.345665017        -61.7594175
                       0.53820121        -57.0032225        0.451359291         174.538113        0.403084099         3.23947002        0.240339285          5.1740111
                      0.591371586        -55.0197269        0.403084099         3.23947002        0.554872398         175.882189        0.259791431        0.537498837
                      0.345665017        -61.7594175        0.240339285          5.1740111        0.259791431        0.537498837       0.0550842518         102.156725

   2.01388889e+009       0.122166919        -27.1561127         0.53790702         -57.336581        0.591053235        -55.3441457        0.345461268        -62.1153175
                       0.53790702         -57.336581        0.451888684         174.397402        0.402631281         3.40618671         0.24020802         5.35410328
                      0.591053235        -55.3441457        0.402631281         3.40618671        0.555575289         175.753397        0.259529115        0.695392798
                      0.345461268        -62.1153175         0.24020802         5.35410328        0.259529115        0.695392798       0.0557373289         102.065752

   2.02256945e+009       0.126087469        -28.4598101        0.537603463        -57.6709542        0.590726057        -55.6694116        0.345257373        -62.4723284
                      0.537603463        -57.6709542        0.452421596         174.256013        0.402192484         3.57461043        0.240079807          5.5360534
                      0.590726057        -55.6694116        0.402192484         3.57461043        0.556281896         175.623698        0.259278866        0.854964163
                      0.345257373        -62.4723284        0.240079807          5.5360534        0.259278866        0.854964163       0.0563930041         101.969085

      2.03125e+009         0.1300631        -29.7061414        0.537282196        -58.0058076        0.590390174        -55.9955511         0.34504454        -62.8297081
                      0.537282196        -58.0058076        0.452938388          174.11344        0.401767801         3.74473053        0.239974316         5.71867062
                      0.590390174        -55.9955511        0.401767801         3.74473053        0.556972351         175.492936        0.259030743         1.01623591
                       0.34504454        -62.8297081        0.239974316         5.71867062        0.259030743         1.01623591        0.057051722           101.8689

   2.03993056e+009       0.134074751        -30.9040263        0.536951781        -58.3417466        0.590037385         -56.322052        0.344836222        -63.1867655
                      0.536951781        -58.3417466        0.453448979         173.969929        0.401357395         3.91667833        0.239871882         5.90287218
                      0.590037385         -56.322052        0.401357395         3.91667833        0.557656623          175.36129        0.258804798         1.17907478
                      0.344836222        -63.1867655        0.239871882         5.90287218        0.258804798         1.17907478       0.0577111407         101.763794

   2.04861111e+009       0.138128374        -32.0543645        0.536617564        -58.6778897        0.589667725        -56.6489536        0.344605544        -63.5449956
                      0.536617564        -58.6778897        0.453953434         173.825477        0.400961299             4.0903        0.239782509         6.08840143
                      0.589667725        -56.6489536        0.400961299             4.0903         0.55833478         175.228757        0.258581088         1.34352602
                      0.344605544        -63.5449956        0.239782509         6.08840143        0.258581088         1.34352602       0.0583724749           101.6547

   2.05729167e+009       0.142214502        -33.1632079        0.536265824         -59.014622        0.589289615        -56.9768254        0.344370576         -63.905948
                      0.536265824         -59.014622         0.45445171         173.680205        0.400589507         4.26533444        0.239706029         6.27475625
                      0.589289615        -56.9768254        0.400589507         4.26533444        0.559006894         175.095335        0.258369666         1.50953241
                      0.344370576         -63.905948        0.239706029         6.27475625        0.258369666         1.50953241       0.0590355544         101.540811

   2.06597222e+009       0.146338641        -34.2305306        0.535896626        -59.3519892        0.588894777        -57.3051683         0.34412227        -64.2652104
                      0.535896626        -59.3519892        0.454943978         173.533984        0.400232204         4.44200886        0.239642586         6.46214685
                      0.588894777        -57.3051683        0.400232204         4.44200886        0.559663164          174.96083        0.258170576         1.67698668
                       0.34412227        -64.2652104        0.239642586         6.46214685        0.258170576         1.67698668       0.0596998318          101.42437

   2.07465278e+009       0.150492446        -35.2621262        0.535518674        -59.6905772        0.588483258        -57.6340221        0.343874192        -64.6257687
                      0.535518674        -59.6905772        0.455420256         173.386791        0.399889486         4.62031009        0.239592336         6.65078296
                      0.588483258        -57.6340221        0.399889486         4.62031009        0.560313453         174.825531        0.257983876         1.84591395
                      0.343874192        -64.6257687        0.239592336         6.65078296        0.257983876         1.84591395       0.0603669002         101.303231

   2.08333333e+009       0.154673371        -36.2597125        0.535128465        -60.0289546        0.588068893        -57.9631176        0.343617398        -64.9869344
                      0.535128465        -60.0289546        0.455890663         173.238635        0.399571414         4.80010444        0.239545041         6.84020861
                      0.588068893        -57.9631176        0.399571414         4.80010444        0.560957828         174.689435        0.257809606         2.01620563
                      0.343617398        -64.9869344        0.239545041         6.84020861        0.257809606         2.01620563       0.0610348372         101.177931

   2.09201389e+009       0.158889232        -37.2238668        0.534734618        -60.3676858        0.587632666        -58.2936174        0.343356101        -65.3472338
                      0.534734618        -60.3676858        0.456355147         173.089638        0.399257978          4.9813272        0.239520949         7.03054596
                      0.587632666        -58.2936174        0.399257978          4.9813272         0.56158659         174.552239        0.257647815         2.18784131
                      0.343356101        -65.3472338        0.239520949         7.03054596        0.257647815         2.18784131       0.0617038725          101.04952

   2.10069445e+009       0.163117246        -38.1584103        0.534318647         -60.708136        0.587185201        -58.6239063        0.343081945        -65.7097381
                      0.534318647         -60.708136        0.456813647         172.939919         0.39896927         5.16386169        0.239500003         7.22186884
                      0.587185201        -58.6239063         0.39896927         5.16386169        0.562219441         174.414438        0.257498557          2.3608223
                      0.343081945        -65.7097381        0.239500003         7.22186884        0.257498557          2.3608223       0.0623748305         100.917029

     2.109375e+009        0.16738501        -39.0666284        0.533890478        -61.0484853        0.586729829        -58.9553539        0.342799207        -66.0729796
                      0.533890478        -61.0484853        0.457256422         172.789192        0.398705463         5.34782167        0.239502078         7.41355464
                      0.586729829        -58.9553539        0.398705463         5.34782167        0.562826783         174.275529        0.257361856         2.53499373
                      0.342799207        -66.0729796        0.239502078         7.41355464        0.257361856         2.53499373         0.06304677         100.780769

   2.11805556e+009       0.171665992        -39.9500121        0.533450053        -61.3887689        0.586249518        -59.2869893         0.34250794         -66.437002
                      0.533450053        -61.3887689        0.457703381         172.637765        0.398456496         5.53302971        0.239507363         7.60618345
                      0.586249518        -59.2869893        0.398456496         5.53302971        0.563438346          174.13601         0.25723776         2.71035581
                       0.34250794         -66.437002        0.239507363         7.60618345         0.25723776         2.71035581       0.0637199158          100.64175

   2.12673611e+009       0.175981647        -40.8085877        0.533001387        -61.7304779         0.58576151        -59.6198556        0.342212138        -66.8003103
                      0.533001387        -61.7304779        0.458134617         172.485439        0.398222446         5.71946935         0.23952594         7.79966196
                       0.58576151        -59.6198556        0.398222446         5.71946935        0.564034398         173.995572        0.257116279         2.88677576
                      0.342212138        -66.8003103         0.23952594         7.79966196        0.257116279         2.88677576       0.0643951026         100.499027

   2.13541667e+009       0.180317484        -41.6435666        0.532540521        -62.0721895         0.58526233        -59.9526426        0.341907807        -67.1644762
                      0.532540521        -62.0721895        0.458550198           172.3322        0.398003489         5.90726691        0.239557569         7.99348622
                       0.58526233        -59.9526426        0.398003489         5.90726691        0.564615016         173.854205        0.257017529         3.06445819
                      0.341907807        -67.1644762        0.239557569         7.99348622        0.257017529         3.06445819       0.0650704062         100.353045

   2.14409722e+009       0.184665788         -42.458605        0.532053916         -62.414395        0.584751915        -60.2853804        0.341595008        -67.5295441
                      0.532053916         -62.414395        0.458960099         172.178205         0.39780955         6.09610904        0.239602406         8.18786331
                      0.584751915        -60.2853804         0.39780955         6.09610904        0.565190002         173.712212        0.256931463         3.24303995
                      0.341595008        -67.5295441        0.239602406         8.18786331        0.256931463         3.24303995       0.0657468513         100.203751

   2.15277778e+009       0.189033868        -43.2529999        0.531572856        -62.7576797        0.584220396        -60.6198087        0.341273809        -67.8955582
                      0.531572856        -62.7576797        0.459364378         172.023448        0.397630643         6.28597817        0.239670369         8.38241448
                      0.584220396        -60.6198087        0.397630643         6.28597817        0.565759634         173.569388        0.256848133         3.42263036
                      0.341273809        -67.8955582        0.239670369         8.38241448        0.256848133         3.42263036        0.066424481         100.051252

   2.17013889e+009       0.197814463         -44.789046        0.530556327         -63.443642        0.583115112         -61.288302        0.340600832        -68.6284242
                      0.530556327         -63.443642        0.460146118         171.711696         0.39733851         6.66896263        0.239825986         8.77317162
                      0.583115112         -61.288302         0.39733851         6.66896263        0.566862797         173.281406        0.256739801         3.78431095
                      0.340600832        -68.6284242        0.239825986         8.77317162        0.256739801         3.78431095       0.0677824825         99.7371953

       2.1875e+009       0.206666466        -46.2586575        0.529490976        -64.1327875        0.581955381        -61.9589025         0.33990188        -69.3624735
                      0.529490976        -64.1327875        0.460885848         171.396822        0.397117216         7.05561704        0.240034144         9.16471118
                      0.581955381        -61.9589025        0.397117216         7.05561704        0.567914896         172.990284         0.25668276           4.149199
                       0.33990188        -69.3624735        0.240034144         9.16471118         0.25668276           4.149199       0.0691427884         99.4119169

   2.20486111e+009       0.215583657        -47.6714266        0.528367862        -64.8225401         0.58074613        -62.6310268         0.33916751        -70.0974281
                      0.528367862        -64.8225401        0.461583589         171.079115        0.396986934         7.44524028        0.240294928         9.55679231
                       0.58074613        -62.6310268        0.396986934         7.44524028        0.568935948          172.69651        0.256677112         4.51664709
                       0.33916751        -70.0974281        0.240294928         9.55679231        0.256677112         4.51664709       0.0705065814         99.0751593

   2.22222222e+009       0.224538504        -49.0305959         0.52720081        -65.5151209        0.579478518        -63.3045053        0.338403769        -70.8358015
                       0.52720081        -65.5151209        0.462249501         170.758812        0.396927964         7.83769241        0.240608067         9.94870505
                      0.579478518        -63.3045053        0.396927964         7.83769241        0.569906616         172.399776        0.256722983         4.88622699
                      0.338403769        -70.8358015        0.240608067         9.94870505        0.256722983         4.88622699       0.0718712763         98.7279793

   2.23958333e+009       0.233533683        -50.3458393         0.52598007        -66.2079507        0.578143571        -63.9792093        0.337604769        -71.5757847
                       0.52598007        -66.2079507        0.462864111         170.435561        0.396960337         8.23222481        0.240983237         10.3395522
                      0.578143571        -63.9792093        0.396960337         8.23222481        0.570826893          172.10041        0.256830328         5.25708139
                      0.337604769        -71.5757847        0.240983237         10.3395522        0.256830328         5.25708139       0.0732371065         98.3701887

   2.25694445e+009       0.242570391        -51.6187022         0.52470132        -66.9023509        0.576763586        -64.6554306        0.336764031         -72.315608
                       0.52470132        -66.9023509        0.463446906         170.110166        0.397073999         8.62837146        0.241400364          10.729473
                      0.576763586        -64.6554306        0.397073999         8.62837146        0.571707024         171.798579        0.256989311         5.62917651
                      0.336764031         -72.315608        0.241400364          10.729473        0.256989311         5.62917651       0.0746046155         98.0031365

   2.27430556e+009       0.251636919        -52.8541383        0.523368387        -67.5976541        0.575320402        -65.3326021        0.335900566        -73.0565021
                      0.523368387        -67.5976541        0.463988399         169.782342        0.397268869         9.02562149        0.241878851         11.1171414
                      0.575320402        -65.3326021        0.397268869         9.02562149        0.572547032          171.49452        0.257199735         6.00163672
                      0.335900566        -73.0565021        0.241878851         11.1171414        0.257199735         6.00163672       0.0759712212         97.6276358

   2.29166667e+009        0.26072796        -54.0548636        0.521990328         -68.294593        0.573813808          -66.01105        0.335002661        -73.7994235
                      0.521990328         -68.294593        0.464488439         169.452361        0.397554819         9.42337049        0.242408561         11.5025341
                      0.573813808          -66.01105        0.397554819         9.42337049         0.57332743         171.187963         0.25747159         6.37400639
                      0.335002661        -73.7994235        0.242408561         11.5025341         0.25747159         6.37400639       0.0773370981         97.2428588

   2.30902778e+009       0.269840569        -55.2262865        0.520561376        -68.9920433        0.572260784         -66.689663        0.334062862        -74.5429641
                      0.520561376        -68.9920433        0.464937375         169.120021         0.39792158         9.82118325        0.242988951         11.8849784
                      0.572260784         -66.689663         0.39792158         9.82118325        0.574068125         170.879329        0.257804537         6.74537318
                      0.334062862        -74.5429641        0.242988951         11.8849784        0.257804537         6.74537318       0.0787027939         96.8499871

   2.32638889e+009       0.278961651        -56.3691759        0.519068267        -69.6909713        0.570643855        -67.3701717        0.333091313        -75.2874743
                      0.519068267        -69.6909713        0.465354628         168.786049        0.398378506         10.2181568        0.243629399         12.2635448
                      0.570643855        -67.3701717        0.398378506         10.2181568        0.574759165         170.568685        0.258188474         7.11554771
                      0.333091313        -75.2874743        0.243629399         12.2635448        0.258188474         7.11554771       0.0800657188         96.4495162

      2.34375e+009        0.28809437        -57.4865561        0.517530376        -70.3889971        0.568965008        -68.0497396        0.332088508        -76.0328009
                      0.517530376        -70.3889971        0.465720482          168.45012        0.398925524          10.614044        0.244319457          12.638057
                      0.568965008        -68.0497396        0.398925524          10.614044        0.575400438         170.256242        0.258633252         7.48404333
                      0.332088508        -76.0328009        0.244319457          12.638057        0.258633252         7.48404333       0.0814272723         96.0416266

   2.36111111e+009       0.297242154         -58.581034        0.515940284        -71.0885016        0.567234641        -68.7312939        0.331054617        -76.7789532
                      0.515940284        -71.0885016         0.46603485         168.112355        0.399552149         11.0084519        0.245058868         13.0083384
                      0.567234641        -68.7312939        0.399552149         11.0084519        0.575981584         169.942233        0.259128315         7.85005042
                      0.331054617        -76.7789532        0.245058868         13.0083384        0.259128315         7.85005042        0.082785899         95.6268519

   2.37847222e+009       0.306386345        -59.6545862        0.514304073        -71.7877002         0.56545396        -69.4119343        0.329990422        -77.5254304
                      0.514304073        -71.7877002        0.466317373         167.773276        0.400267254          11.400327        0.245856402         13.3730008
                       0.56545396        -69.4119343        0.400267254          11.400327        0.576523136          169.62662        0.259683399          8.2130706
                      0.329990422        -77.5254304        0.245856402         13.3730008        0.259683399          8.2130706       0.0841410268          95.205526

   2.39583333e+009       0.315526888        -60.7069382        0.512608413        -72.4876145        0.563605726        -70.0934982        0.328885902        -78.2720461
                      0.512608413        -72.4876145        0.466547015         167.433229        0.401060772         11.7897338          0.2467015         13.7319567
                      0.563605726        -70.0934982        0.401060772         11.7897338        0.577005391         169.309159        0.260288118          8.5727796
                      0.328885902        -78.2720461          0.2467015         13.7319567        0.260288118          8.5727796       0.0854921104         94.7781457

   2.41319445e+009       0.324653486          -61.74096        0.510865304        -73.1878526        0.561705569        -70.7747479        0.327751151        -79.0188531
                      0.510865304        -73.1878526        0.466736153         167.091046        0.401951364         12.1754581        0.247594039         14.0852969
                      0.561705569        -70.7747479        0.401951364         12.1754581        0.577438529         168.989939          0.2609617         8.92789441
                      0.327751151        -79.0188531        0.247594039         14.0852969          0.2609617         8.92789441       0.0868385677          94.344898

   2.43055556e+009       0.333774395        -62.7570647        0.509067288        -73.8873267         0.55974314        -71.4556427        0.326586204         -79.765672
                      0.509067288        -73.8873267         0.46688123         166.748659        0.402918657         12.5576042        0.248532918         14.4322238
                       0.55974314        -71.4556427        0.402918657         12.5576042        0.577818963         168.670815        0.261674218         9.27924346
                      0.326586204         -79.765672        0.248532918         14.4322238        0.261674218         9.27924346       0.0881798564         93.9062662

   2.44791667e+009       0.342875213        -63.7592837        0.507223005        -74.5866627        0.557739644        -72.1361578        0.325390837        -80.5124932
                      0.507223005        -74.5866627         0.46697493         166.404478        0.403971339         12.9352656        0.249526892         14.7716005
                      0.557739644        -72.1361578        0.403971339         12.9352656        0.578150759         168.349751        0.262454506         9.62497376
                      0.325390837        -80.5124932        0.249526892         14.7716005        0.262454506         9.62497376       0.0895154185         93.4626244

   2.46527778e+009       0.351959725        -64.7455032        0.505331634        -75.2861579        0.555672082        -72.8169139        0.324155202         -81.258689
                      0.505331634        -75.2861579        0.467024831         166.059865        0.405098717         13.3083055        0.250565824         15.1039016
                      0.555672082        -72.8169139        0.405098717         13.3083055        0.578432211         168.027626        0.263282132         9.96520608
                      0.324155202         -81.258689        0.250565824         15.1039016        0.263282132         9.96520608       0.0908456778         93.0141499

   2.48263889e+009       0.361031258        -65.7173326        0.503385149        -75.9847368          0.5535454        -73.4962635        0.322898522        -82.0049793
                      0.503385149        -75.9847368        0.467021321         165.714408        0.406319249         13.6756324        0.251658119         15.4277844
                        0.5535454        -73.4962635        0.406319249         13.6756324        0.578651633         167.705106        0.264156729         10.2998218
                      0.322898522        -82.0049793        0.251658119         15.4277844        0.264156729         10.2998218       0.0921680808         92.5613445

          2.5e+009        0.37005785        -66.6771926        0.501394474        -76.6818772        0.551377511         -74.175074        0.321600998        -82.7503079
                      0.501394474        -76.6818772        0.466983883         165.368596        0.407612405         14.0374708        0.252784004         15.7443943
                      0.551377511         -74.175074        0.407612405         14.0374708        0.578821067         167.381326        0.265087389         10.6278872
                      0.321600998        -82.7503079        0.252784004         15.7443943        0.265087389         10.6278872       0.0934840487         92.1044144

   2.51736111e+009       0.379064172        -67.6229069        0.499356122        -77.3789731        0.549145441        -74.8540515        0.320281902         -83.495128
                      0.499356122        -77.3789731        0.466890669         165.022892         0.40897635         14.3930166        0.253961716         16.0520313
                      0.549145441        -74.8540515         0.40897635         14.3930166        0.578936273         167.058125        0.266073299         10.9488523
                      0.320281902         -83.495128        0.253961716         16.0520313        0.266073299         10.9488523       0.0947930062         91.6437323

   2.53472222e+009       0.388027308        -68.5575156        0.497261504        -78.0749649        0.546875224        -75.5310149        0.318920787        -84.2389955
                      0.497261504        -78.0749649        0.466753948         164.676301        0.410430506         14.7418575        0.255171245         16.3516907
                      0.546875224        -75.5310149        0.410430506         14.7418575        0.579001761         166.733472        0.267103991         11.2628159
                      0.318920787        -84.2389955        0.255171245         16.3516907        0.267103991         11.2628159       0.0960923642         91.1795996

   2.55208333e+009       0.396954497        -69.4809516        0.495131349        -78.7692704        0.544543455        -76.2066992        0.317547035        -84.9820774
                      0.495131349        -78.7692704        0.466571145         164.329893        0.411952494         15.0833646         0.25643101         16.6418889
                      0.544543455        -76.2066992        0.411952494         15.0833646        0.579013094           166.4092        0.268178619          11.569293
                      0.317547035        -84.9820774         0.25643101         16.6418889        0.268178619          11.569293       0.0973845236          90.712211

   2.56944445e+009       0.405839782        -70.3939443        0.492952747        -79.4629395        0.542168261        -76.8818951        0.316130039        -85.7238143
                      0.492952747        -79.4629395        0.466354591         163.982712        0.413544191         15.4187993        0.257720457         16.9232594
                      0.542168261        -76.8818951        0.413544191         15.4187993        0.578972623         166.084245        0.269296506         11.8680246
                      0.316130039        -85.7238143        0.257720457         16.9232594        0.269296506         11.8680246         0.09866688         90.2419897

   2.58680556e+009       0.414680369         -71.295903        0.490726126        -80.1552386        0.539740919        -77.5555903        0.314688927        -86.4644837
                      0.490726126        -80.1552386         0.46607956         163.636336        0.415209183         15.7450439        0.259058204          17.194537
                      0.539740919        -77.5555903        0.415209183         15.7450439        0.578878008         165.759469         0.27046674         12.1583189
                      0.314688927        -86.4644837        0.259058204          17.194537         0.27046674         12.1583189       0.0999398112         89.7691418

   2.60416667e+009       0.423479308        -72.1880115        0.488460798        -80.8460654        0.537271798        -78.2272305        0.313222974        -87.2036391
                      0.488460798        -80.8460654         0.46575549         163.290976        0.416939651         16.0637489        0.260424316         17.4568432
                      0.537271798        -78.2272305        0.416939651         16.0637489        0.578726704          165.43573        0.271678607         12.4401677
                      0.313222974        -87.2036391        0.260424316         17.4568432        0.271678607         12.4401677        0.101197685         89.2939031

   2.62152778e+009       0.432220684        -73.0705571        0.486155798        -81.5353187          0.5347475        -78.8978861        0.311731156        -87.9415632
                      0.486155798        -81.5353187        0.465394698         162.945696        0.418734839         16.3748689        0.261827239          17.709157
                        0.5347475        -78.8978861        0.418734839         16.3748689        0.578533331         165.111262        0.272931387         12.7133575
                      0.311731156        -87.9415632        0.261827239          17.709157        0.272931387         12.7133575        0.102451852         88.8166074

   2.63888889e+009       0.440898008        -73.9442889        0.483810357        -82.2226626         0.53218089        -79.5655005        0.310212625        -88.6775712
                      0.483810357        -82.2226626        0.464987598         162.600034        0.420591132         16.6770624        0.263266456         17.9515376
                       0.53218089        -79.5655005        0.420591132         16.6770624        0.578273454         164.787375         0.27422435         12.9776878
                      0.310212625        -88.6775712        0.263266456         17.9515376         0.27422435         12.9776878         0.10369365         88.3374795

      2.65625e+009       0.449526725         -74.809383        0.481413119        -82.9080803        0.529567253        -80.2319904        0.308656262        -89.4118404
                      0.481413119        -82.9080803        0.464540687         162.255422        0.422510569         16.9716221        0.264731342         18.1843165
                      0.529567253        -80.2319904        0.422510569         16.9716221        0.577975864         164.464746        0.275546803         13.2332452
                      0.308656262        -89.4118404        0.264731342         18.1843165        0.275546803         13.2332452        0.104923398         87.8567664

   2.67361111e+009       0.458102654        -75.6652647        0.478983061        -83.5914212        0.526917136        -80.8963875        0.307090973        -90.1442513
                      0.478983061        -83.5914212        0.464041159         161.912554        0.424496052         17.2555504        0.266230607         18.4067057
                      0.526917136        -80.8963875        0.424496052         17.2555504        0.577611466         164.142488        0.276917479         13.4789136
                      0.307090973        -90.1442513        0.266230607         18.4067057        0.276917479         13.4789136        0.106141406         87.3746521

   2.69097222e+009       0.466606665        -76.5135323        0.476518654        -84.2727767        0.524219086        -81.5586233        0.305495592        -90.8746184
                      0.476518654        -84.2727767        0.463501363         161.570524        0.426523978         17.5326474        0.267753965         18.6192782
                      0.524219086        -81.5586233        0.426523978         17.5326474        0.577208984          163.82131        0.278316411         13.7156928
                      0.305495592        -90.8746184        0.267753965         18.6192782        0.278316411         13.7156928         0.10734795         86.8914742

   2.70833333e+009       0.475043988        -77.3539761        0.474018734        -84.9517624        0.521482091        -82.2184352        0.303878894        -91.6028111
                      0.474018734        -84.9517624        0.462921129         161.229232        0.428616204         17.7991631        0.269300649         18.8219457
                      0.521482091        -82.2184352        0.428616204         17.7991631        0.576749027         163.500577        0.279752121         13.9425592
                      0.303878894        -91.6028111        0.269300649         18.8219457        0.279752121         13.9425592        0.108543306         86.4073997

   2.72569445e+009       0.483412128        -78.1847276        0.471471838        -85.6281379          0.5187145        -82.8759427         0.30222962        -92.3288361
                      0.471471838        -85.6281379        0.462300294          160.88858         0.43075275         18.0559634        0.270870227         19.0148284
                        0.5187145        -82.8759427         0.43075275         18.0559634        0.576250629         163.180759        0.281224104         14.1595797
                       0.30222962        -92.3288361        0.270870227         19.0148284        0.281224104         14.1595797        0.109727711         85.9227464

   2.74305556e+009       0.491709783        -79.0087424        0.468896198        -86.3021984        0.515894993        -83.5307352        0.300566431         -93.052413
                      0.468896198        -86.3021984        0.461632048         160.550809         0.43293591         18.3043756        0.272470749         19.1967621
                      0.515894993        -83.5307352         0.43293591         18.3043756        0.575691538         162.862148        0.282712505         14.3678338
                      0.300566431         -93.052413        0.272470749         19.1967621        0.282712505         14.3678338        0.110901396         85.4377176

   2.76041667e+009       0.499932243        -79.8251949        0.466290365        -86.9735146        0.513051912        -84.1829518        0.298887884        -93.7732064
                      0.466290365        -86.9735146        0.460922689         160.213474        0.435171286         18.5427845        0.274083564         19.3696603
                      0.513051912        -84.1829518        0.435171286         18.5427845        0.575090586         162.545235        0.284235769         14.5660223
                      0.298887884        -93.7732064        0.274083564         19.3696603        0.284235769         14.5660223        0.112054595         84.9521619

   2.77777778e+009       0.508083025         -80.634192        0.463652546        -87.6421449        0.510163643        -84.8323026        0.297182759         -94.491744
                      0.463652546        -87.6421449        0.460178035         159.878075        0.437439118         18.7721056        0.275716753          19.532378
                      0.510163643        -84.8323026        0.437439118         18.7721056        0.574437919         162.229641        0.285792926         14.7538486
                      0.297182759         -94.491744        0.275716753          19.532378        0.285792926         14.7538486        0.113197465         84.4666905

   2.79513889e+009       0.516155094         -81.435972        0.460981043        -88.3077811        0.507248489        -85.4787279        0.295459431        -95.2073507
                      0.460981043        -88.3077811        0.459397744          159.54453        0.439757597          18.991585        0.277369941         19.6850606
                      0.507248489        -85.4787279        0.439757597          18.991585        0.573742773         161.915586        0.287364713           14.93283
                      0.295459431        -95.2073507        0.277369941         19.6850606        0.287364713           14.93283        0.114330128         83.9817345

       2.8125e+009       0.524151728        -82.2305115        0.458283982        -88.9704724        0.504294567        -86.1221768        0.293716546        -95.9202255
                      0.458283982        -88.9704724        0.458572133         159.212317        0.442107078         19.2021584        0.279042779         19.8278552
                      0.504294567        -86.1221768        0.442107078         19.2021584        0.573004838         161.602995        0.288959637         15.1019946
                      0.293716546        -95.9202255        0.279042779         19.8278552        0.288959637         15.1019946        0.115452873         83.4968214

   2.82986111e+009       0.532065765        -83.0178475        0.455559495        -89.6300823        0.501320097        -86.7625043        0.291952559         -96.630189
                      0.455559495        -89.6300823        0.457710268         158.881783        0.444493012          19.402282        0.280725201         19.9614144
                      0.501320097        -86.7625043        0.444493012          19.402282        0.572211133         161.292423        0.290577042         15.2612753
                      0.291952559         -96.630189        0.280725201         19.9614144        0.290577042         15.2612753        0.116555653         83.0126592

   2.84722222e+009        0.53988971        -83.7981576         0.45280566        -90.2864892        0.498303172        -87.3994845        0.290175787        -97.3368142
                       0.45280566        -90.2864892        0.456808179         158.554015        0.446908579         19.5937149        0.282416235         20.0855097
                      0.498303172        -87.3994845        0.446908579         19.5937149        0.571383437         160.983481        0.292217082          15.411179
                      0.290175787        -97.3368142        0.282416235         20.0855097        0.292217082          15.411179        0.117638802         82.5284646

   2.86458333e+009       0.547636008        -84.5716356        0.450030513        -90.9396037        0.495271742        -88.0333067        0.288384944        -98.0404437
                      0.450030513        -90.9396037        0.455878402         158.228231        0.449349801         19.7753621         0.28412568         20.1999816
                      0.495271742        -88.0333067        0.449349801         19.7753621        0.570508672          160.67673        0.293868982         15.5517887
                      0.288384944        -98.0404437         0.28412568         20.1999816        0.293868982         15.5517887         0.11871219         82.0455895

   2.88194445e+009         0.5552971        -85.3381198        0.447232046        -91.5893047        0.492203873        -88.6636475        0.286578375        -98.7408421
                      0.447232046        -91.5893047        0.454907553         157.905065         0.45181944         19.9485454        0.285843202         20.3053009
                      0.492203873        -88.6636475         0.45181944         19.9485454        0.569599197         160.371482        0.295532424         15.6832442
                      0.286578375        -98.7408421        0.285843202         20.3053009        0.295532424         15.6832442        0.119775981         81.5638475

   2.89930556e+009       0.562864842        -86.0978998        0.444408221        -92.2354996         0.48911751        -89.2904112        0.284754689        -99.4381746
                      0.444408221        -92.2354996        0.453899006         157.583269        0.454322917         20.1117543        0.287557104         20.4011972
                       0.48911751        -89.2904112        0.454322917         20.1117543        0.568638481         160.069233        0.297216734         15.8051598
                      0.284754689        -99.4381746        0.287557104         20.4011972        0.297216734         15.8051598        0.120820156         81.0832634

   2.91666667e+009         0.5703512        -86.8509961        0.441557015         -92.878216        0.486000553        -89.9136025         0.28292185        -100.131664
                      0.441557015         -92.878216         0.45286707         157.264906        0.456831479         20.2664215        0.289290801          20.489053
                      0.486000553        -89.9136025        0.456831479         20.2664215        0.567642277         159.768361        0.298911731         15.9180133
                       0.28292185        -100.131664        0.289290801          20.489053        0.298911731         15.9180133        0.121854749         80.6043104

   2.93402778e+009       0.577747891        -87.5973767        0.438696365         -93.517302        0.482870902        -90.5331077        0.281068736        -100.821992
                      0.438696365         -93.517302        0.451796709          156.94778        0.459376239          20.412547        0.291020478         20.5677971
                      0.482870902        -90.5331077        0.459376239          20.412547        0.566606785         159.469756        0.300617159         16.0219465
                      0.281068736        -100.821992        0.291020478         20.5677971        0.300617159         16.0219465        0.122870043         80.1260035

   2.95138889e+009       0.585046402        -88.3370476        0.435814085         -94.152514        0.479716431        -91.1488437        0.279213592        -101.508536
                      0.435814085         -94.152514        0.450688918         156.634647        0.461921617          20.549222        0.292758838         20.6387363
                      0.479716431        -91.1488437        0.461921617          20.549222        0.565531574         159.173359        0.302332783            16.1171
                      0.279213592        -101.508536        0.292758838         20.6387363        0.302332783            16.1171        0.123865683         79.6494364

      2.96875e+009       0.592257973        -89.0702661        0.432908225        -94.7840852        0.476544993        -91.7607086         0.27734476        -102.191371
                      0.432908225        -94.7840852        0.449560273         156.323625         0.46449289         20.6780394        0.294502207         20.7001827
                      0.476544993        -91.7607086         0.46449289         20.6780394        0.564421949         158.880424        0.304058388         16.2036134
                       0.27734476        -102.191371        0.294502207         20.7001827        0.304058388         16.2036134        0.124851614         79.1751725

   2.98611111e+009       0.599373765        -89.7969224        0.429996549        -95.4116108        0.473354468        -92.3687407        0.275461034         -102.87083
                      0.429996549        -95.4116108        0.448397207         156.015325        0.467073223         20.7972505         0.29624463         20.7547947
                      0.473354468        -92.3687407        0.467073223         20.7972505        0.563275294         158.588646        0.305783902           16.28197
                      0.275461034         -102.87083         0.29624463         20.7547947        0.305783902           16.28197        0.125827919         78.7030162

   3.00347222e+009       0.606394696        -90.5171003        0.427067067        -96.0352554        0.470142661        -92.9727416        0.273570539        -103.546362
                      0.427067067        -96.0352554        0.447208392         155.710216         0.46965639         20.9085823        0.297982459         20.8008956
                      0.470142661        -92.9727416         0.46965639         20.9085823        0.562093245         158.300236        0.307518471         16.3516042
                      0.273570539        -103.546362        0.297982459         20.8008956        0.307518471         16.3516042        0.126784695          78.232301

   3.02083333e+009       0.613331523        -91.2308677        0.424117682        -96.6549618        0.466927422        -93.5726297        0.271671827        -104.218034
                      0.424117682        -96.6549618        0.445984238         155.407725        0.472254971         21.0128602        0.299728496         20.8397419
                      0.466927422        -93.5726297        0.472254971         21.0128602        0.560875217         158.015155          0.3092625         16.4130122
                      0.271671827        -104.218034        0.299728496         20.8397419          0.3092625         16.4130122        0.127721852          77.763186

   3.03819445e+009       0.620164806        -91.9382077         0.42116626        -97.2704685        0.463686617        -94.1684596         0.26977314        -104.885381
                       0.42116626        -97.2704685        0.444737604         155.107167        0.474861475          21.107939        0.301460416         20.8710349
                      0.463686617        -94.1684596        0.474861475          21.107939        0.559628213         157.731465        0.310996389         16.4671946
                       0.26977314        -104.885381        0.301460416         20.8710349        0.310996389         16.4671946        0.128648815         77.2972396

   3.05555556e+009       0.626904924        -92.6391322        0.418200873        -97.8819597        0.460448072        -94.7600042        0.267863357         -105.54898
                      0.418200873        -97.8819597        0.443468688         154.811392        0.477460514         21.1959517        0.303200408          20.895326
                      0.460448072        -94.7600042        0.477460514         21.1959517        0.558353509         157.451413         0.31273921         16.5132354
                      0.267863357         -105.54898        0.303200408          20.895326         0.31273921         16.5132354        0.129565828         76.8338228

   3.07291667e+009       0.633552174         -93.333806        0.415229316        -98.4891455        0.457189765        -95.3474651        0.265941106        -106.208929
                      0.415229316        -98.4891455        0.442176394         154.517491        0.480070477          21.276151        0.304926173         20.9123194
                      0.457189765        -95.3474651        0.480070477          21.276151        0.557045157          157.17363        0.314481272         16.5517851
                      0.265941106        -106.208929        0.304926173         20.9123194        0.314481272         16.5517851        0.130453266         76.3711038

   3.09027778e+009       0.640096571        -94.0221743        0.412239717        -99.0922532        0.453929459        -95.9305111        0.264024474        -106.864283
                      0.412239717        -99.0922532        0.440851701         154.227767        0.482678151         21.3479852        0.306650591         20.9232185
                      0.453929459        -95.9305111        0.482678151         21.3479852         0.55570802         156.899426        0.316222497         16.5829678
                      0.264024474        -106.864283        0.306650591         20.9232185        0.316222497         16.5829678        0.131339884         75.9127591

   3.10763889e+009        0.64655799        -94.7041793        0.409249875        -99.6908735        0.450655243        -96.5093897        0.262092601          -107.5161
                      0.409249875        -99.6908735        0.439511792         153.940415         0.48528128         21.4142195         0.30836073          20.927054
                      0.450655243        -96.5093897         0.48528128         21.4142195        0.554336297          156.62742        0.317953238         16.6074199
                      0.262092601          -107.5161         0.30836073          20.927054        0.317953238         16.6074199        0.132206257         75.4564866

        3.125e+009       0.652916262        -95.3800048        0.406257977        -100.285118        0.447374922        -97.0838418        0.260163506        -108.163341
                      0.406257977        -100.285118        0.438138455         153.657183        0.487881695         21.4723301        0.310078836         20.9243495
                      0.447374922        -97.0838418        0.487881695         21.4723301        0.552943907         156.359349        0.319692898         16.6243992
                      0.260163506        -108.163341        0.310078836         20.9243495        0.319692898         16.6243992        0.133052445         75.0020091

   3.14236111e+009       0.659171047        -96.0497208        0.403252267        -100.875234        0.444086461        -97.6538554        0.258236065        -108.806182
                      0.403252267        -100.875234        0.436757966         153.376868        0.490486534         21.5246204         0.31177332         20.9154647
                      0.444086461        -97.6538554        0.490486534         21.5246204        0.551525135         156.093838        0.321412411         16.6353858
                      0.258236065        -108.806182         0.31177332         20.9154647        0.321412411         16.6353858        0.133897525         74.5517516

   3.15972222e+009       0.665341736        -96.7131874         0.40025069         -101.46083        0.440798035        -98.2194951        0.256299116        -109.445131
                       0.40025069         -101.46083        0.435347538         153.099459        0.493069716         21.5698747        0.313466449         20.9009012
                      0.440798035        -98.2194951        0.493069716         21.5698747         0.55008867         155.831287        0.323140787          16.639124
                      0.256299116        -109.445131        0.313466449         20.9009012        0.323140787          16.639124        0.134712025         74.1029193

   3.17708333e+009       0.671417589         -97.370431        0.397251119         -102.04171        0.437517255        -98.7802631        0.254361434        -110.079907
                      0.397251119         -102.04171        0.433929111         152.824952         0.49565338         21.6084323        0.315148904         20.8813985
                      0.437517255        -98.7802631         0.49565338         21.6084323        0.548624929         155.571257         0.32484956         16.6374129
                      0.254361434        -110.079907        0.315148904         20.8813985         0.32484956         16.6374129        0.135525097         73.6583193

   3.19444445e+009       0.677388153        -98.0217634        0.394242304        -102.618423        0.434222825        -99.3368962        0.252431041          -110.7097
                      0.394242304        -102.618423        0.432484179         152.555094         0.49822812         21.6408212        0.316817152         20.8553433
                      0.434222825        -99.3368962         0.49822812         21.6408212        0.547129315         155.314676        0.326557611         16.6291656
                      0.252431041          -110.7097        0.316817152         20.8553433        0.326557611         16.6291656        0.136316932         73.2162125

   3.21180556e+009       0.683271895         -98.666725        0.391232426        -103.190784        0.430932427        -99.8888216        0.250497553        -111.335468
                      0.391232426        -103.190784         0.43102145         152.287522        0.500784554         21.6675609        0.318474799         20.8245165
                      0.430932427        -99.8888216        0.500784554         21.6675609        0.545619432         155.062406        0.328265241         16.6146511
                      0.250497553        -111.335468        0.318474799         20.8245165        0.328265241         16.6146511        0.137097389         72.7771626

   3.22916667e+009        0.68905792         -99.305528        0.388229161        -103.758266        0.427644474        -100.436234          0.2485597        -111.957219
                      0.388229161        -103.758266        0.429544727         152.024023        0.503341201         21.6878991        0.320118338         20.7873161
                      0.427644474        -100.436234        0.503341201         21.6878991        0.544094112         154.812104        0.329953312         16.5949586
                        0.2485597        -111.957219        0.320118338         20.7873161        0.329953312         16.5949586        0.137856309         72.3405145

   3.24652778e+009       0.694746191        -99.9387558        0.385231127        -104.321073        0.424356898        -100.978941        0.246626231        -112.574509
                      0.385231127        -104.321073        0.428053495         151.764607        0.505870127         21.7031891        0.321754926         20.7471652
                      0.424356898        -100.978941        0.505870127         21.7031891        0.542544433         154.565668        0.331631437         16.5696708
                      0.246626231        -112.574509        0.321754926         20.7471652        0.331631437         16.5696708        0.138603516          71.906891

   3.26388889e+009       0.700344656        -100.565932        0.382227109        -104.879662        0.421068414        -101.517283        0.244695845        -113.187276
                      0.382227109        -104.879662        0.426543227         151.507464        0.508389879         21.7126749        0.323377529         20.7007914
                      0.421068414        -101.517283        0.508389879         21.7126749        0.540978501         154.321183        0.333300231         16.5391998
                      0.244695845        -113.187276        0.323377529         20.7007914        0.333300231         16.5391998        0.139338023          71.477279

      3.28125e+009       0.705851059        -101.186717        0.379234703         -105.43321        0.417786808        -102.050792        0.242767657         -113.79568
                      0.379234703         -105.43321        0.425031141         151.253875        0.510904132         21.7174849         0.32498976         20.6499317
                      0.417786808        -102.050792        0.510904132         21.7174849        0.539396248         154.081016        0.334959743         16.5036203
                      0.242767657         -113.79568         0.32498976         20.6499317        0.334959743         16.5036203        0.140060391         71.0507003

   3.29861111e+009       0.711266928        -101.802364        0.376241649        -105.981584        0.414510883        -102.579783         0.24084994        -114.398909
                      0.376241649        -105.981584        0.423498353          151.00558        0.513390595         21.7174768         0.32658233         20.5952647
                      0.414510883        -102.579783        0.513390595         21.7174768         0.53779251         153.843752        0.336609745         16.4628418
                       0.24084994        -114.398909         0.32658233         20.5952647        0.336609745         16.4628418        0.140769917         70.6277421

   3.31597222e+009       0.716587877        -102.411729        0.373251258        -106.527365        0.411238883        -103.104173        0.238919428        -114.996901
                      0.373251258        -106.527365        0.421950195         150.758377         0.51585486         21.7112778        0.328155305          20.536836
                      0.411238883        -103.104173         0.51585486         21.7112778        0.536175822         153.609858        0.338241279         16.4177406
                      0.238919428        -114.996901        0.328155305          20.536836        0.338241279         16.4177406        0.141466864         70.2078305

   3.33333333e+009       0.721813304        -103.015262        0.370275478        -107.066665        0.407979023         -103.62369        0.237012662        -115.592014
                      0.370275478        -107.066665        0.420402747         150.516631        0.518317328         21.7016477        0.329718124         20.4740811
                      0.407979023         -103.62369        0.518317328         21.7016477        0.534545718         153.379344           0.339864         16.3678965
                      0.237012662        -115.592014        0.329718124         20.4740811           0.339864         16.3678965        0.142150148         69.7919213

     3.359375e+009        0.72949074        -103.909375        0.365823906        -107.867349        0.403102025        -104.393045        0.234147902        -116.476411
                      0.365823906        -107.867349        0.418044764          150.16009        0.521957372         21.6784941        0.332039246         20.3724606
                      0.403102025        -104.393045        0.521957372         21.6784941        0.532080479         153.041021        0.342262954         16.2855562
                      0.234147902        -116.476411        0.332039246         20.3724606        0.342262954         16.2855562        0.143143512         69.1727048

   3.38541667e+009        0.73696958        -104.790692        0.361384693        -108.659059        0.398246368        -105.152911        0.231298306        -117.351621
                      0.361384693        -108.659059        0.415680203         149.810435        0.525560605         21.6455289        0.334321852          20.263793
                      0.398246368        -105.152911        0.525560605         21.6455289        0.529583804         152.707716        0.344643355          16.193347
                      0.231298306        -117.351621        0.334321852          20.263793        0.344643355          16.193347        0.144110284         68.5622022

   3.41145833e+009       0.744245266        -105.659772        0.356981194        -109.439946        0.393417246        -105.902986        0.228455414        -118.215146
                      0.356981194        -109.439946        0.413289103         149.469437         0.52910859         21.6037429        0.336562754          20.146586
                      0.393417246        -105.902986         0.52910859         21.6037429        0.527067304         152.383831        0.346986843         16.0926897
                      0.228455414        -118.215146        0.336562754          20.146586        0.346986843         16.0926897        0.145050492         67.9594664

       3.4375e+009       0.751326644        -106.515248        0.352585896         -110.20913        0.388609468        -106.642897        0.225642339        -119.068662
                      0.352585896         -110.20913        0.410892386           149.1374        0.532601507         21.5532995        0.338769131         20.0241436
                      0.388609468        -106.642897        0.532601507         21.5532995        0.524534474         152.066045         0.34928492         15.9846471
                      0.225642339        -119.068662        0.338769131         20.0241436         0.34928492         15.9846471        0.145963082         67.3646752

   3.46354167e+009       0.758223387        -107.358848        0.348232212        -110.969115        0.383836982        -107.371389        0.222838056        -119.914226
                      0.348232212        -110.969115        0.408471571         148.813004        0.536052543         21.4949552        0.340934405         19.8933695
                      0.383836982        -107.371389        0.536052543         21.4949552        0.521974682          151.75634        0.351557098         15.8684306
                      0.222838056        -119.914226        0.340934405         19.8933695        0.351557098         15.8684306         0.14683816         66.7760992

   3.48958333e+009       0.764927156        -108.190266        0.343902556        -111.718496        0.379097578        -108.089398        0.220051413        -120.746738
                      0.343902556        -111.718496        0.406047771         148.496587        0.539452624         21.4292361        0.343065705         19.7575175
                      0.379097578        -108.089398        0.539452624         21.4292361        0.519404844         151.453367        0.353794899         15.7450789
                      0.220051413        -120.746738        0.343065705         19.7575175        0.353794899         15.7450789        0.147702581         66.1981692

     3.515625e+009       0.771438403        -109.008973        0.339595964        -112.458415        0.374386342        -108.796464        0.217294109        -121.572436
                      0.339595964        -112.458415         0.40361132         148.187526        0.542796327         21.3576297        0.345153863         19.6171982
                      0.374386342        -108.796464        0.542796327         21.3576297        0.516827703         151.158705        0.355999441         15.6151555
                      0.217294109        -121.572436        0.345153863         19.6171982        0.355999441         15.6151555        0.148528057         65.6260898

   3.54166667e+009       0.777782353        -109.815317        0.335335628        -113.186476        0.369705078        -109.495053        0.214552555        -122.386398
                      0.335335628        -113.186476          0.4011781         147.887434        0.546080246         21.2792442        0.347205206         19.4703334
                      0.369705078        -109.495053        0.546080246         21.2792442        0.514238021         150.870941        0.358151759         15.4795988
                      0.214552555        -122.386398        0.347205206         19.4703334        0.358151759         15.4795988         0.14933254         65.0624943

   3.56770833e+009        0.78394312        -110.609851         0.33110252        -113.905035        0.365074346        -110.181687        0.211828644         -123.19044
                       0.33110252        -113.905035        0.398730024         147.594933        0.549313985         21.1937985        0.349213951         19.3190824
                      0.365074346        -110.181687        0.549313985         21.1937985        0.511634662          150.59015        0.360282127         15.3378018
                      0.211828644         -123.19044        0.349213951         19.3190824        0.360282127         15.3378018        0.150114768         64.5076426

      3.59375e+009       0.789927155        -111.393294        0.326905775        -114.614536        0.360474195        -110.858348        0.209138653        -123.987163
                      0.326905775        -114.614536        0.396288318         147.310468        0.552486407         21.1040748        0.351193077         19.1644699
                      0.360474195        -110.858348        0.552486407         21.1040748        0.509038843         150.316547        0.362362446         15.1913961
                      0.209138653        -123.987163        0.351193077         19.1644699        0.362362446         15.1913961         0.15086533          63.959432

   3.61979167e+009        0.79573903        -112.164024        0.322737204        -115.312905        0.355913383         -111.52549         0.20646024        -124.773083
                      0.322737204        -115.312905        0.393843574           147.0334        0.555603478         21.0087841         0.35311737         19.0045012
                      0.355913383         -111.52549        0.555603478         21.0087841        0.506427141         150.050097        0.364412551         15.0397355
                       0.20646024        -124.773083         0.35311737         19.0045012        0.364412551         15.0397355        0.151601836         63.4207513

   3.64583333e+009       0.801392059        -112.923996        0.318619333        -116.001296        0.351397184        -112.182005        0.203818152        -125.549115
                      0.318619333        -116.001296        0.391408719         146.763433         0.55866906         20.9089493        0.355015768         18.8427284
                      0.351397184        -112.182005         0.55866906         20.9089493        0.503825843         149.790058        0.366413936         14.8839752
                      0.203818152        -125.549115        0.355015768         18.8427284        0.366413936         14.8839752        0.152305981         62.8878348

     3.671875e+009       0.806880599        -113.671786         0.31453937        -116.679915        0.346925385        -112.828848        0.201195469        -126.314005
                       0.31453937        -116.679915        0.388963518         146.502358        0.561664715         20.8053416         0.35686306         18.6771302
                      0.346925385        -112.828848        0.561664715         20.8053416        0.501223874         149.538512        0.368386708         14.7236295
                      0.201195469        -126.314005         0.35686306         18.6771302        0.368386708         14.7236295        0.152994329          62.364356

   3.69791667e+009       0.812218362        -114.409218        0.310498223        -117.349876        0.342503397        -113.464815        0.198601234        -127.071846
                      0.310498223        -117.349876        0.386531968         146.247443          0.5646152          20.695957        0.358681637         18.5081944
                      0.342503397        -113.464815          0.5646152          20.695957        0.498621709         149.293021        0.370312808         14.5601103
                      0.198601234        -127.071846        0.358681637         18.5081944        0.370312808         14.5601103        0.153657559         61.8482213

   3.72395833e+009       0.817389807        -115.135125         0.30650136        -118.009809        0.338117253        -114.093768        0.196040975        -127.820385
                       0.30650136        -118.009809        0.384102177         146.001298        0.567503334         20.5847596        0.360452747         18.3369301
                      0.338117253        -114.093768        0.567503334         20.5847596        0.496027097          149.05427        0.372211581         14.3924899
                      0.196040975        -127.820385        0.360452747         18.3369301        0.372211581         14.3924899        0.154304569         61.3404956

         3.75e+009       0.822413766        -115.850305         0.30254527        -118.659127        0.333782848         -114.71004        0.193498032        -128.558534
                       0.30254527        -118.659127        0.381684495         145.761606         0.57032813         20.4685651         0.36218607         18.1628094
                      0.333782848         -114.71004         0.57032813         20.4685651        0.493439167         148.822371        0.374064906         14.2221391
                      0.193498032        -128.558534         0.36218607         18.1628094        0.374064906         14.2221391        0.154925702         60.8393935

   3.77604167e+009         0.8272915         -116.55452        0.298631352        -119.298912        0.329500001        -115.318386        0.190990146        -129.288563
                      0.298631352        -119.298912        0.379272591         145.529756        0.573100357         20.3502206        0.363884909         17.9873152
                      0.329500001        -115.318386        0.573100357         20.3502206        0.490853741         148.595833        0.375873233         14.0491832
                      0.190990146        -129.288563        0.363884909         17.9873152        0.375873233         14.0491832        0.155529335         60.3463685

   3.80208333e+009       0.832033048        -117.248743        0.294761408        -119.930287        0.325261384        -115.916694        0.188507359        -130.011827
                      0.294761408        -119.930287        0.376879619          145.30552        0.575829565         20.2293803        0.365549391         17.8104154
                      0.325261384        -115.916694        0.575829565         20.2293803        0.488290451         148.377585        0.377656662         13.8731632
                      0.188507359        -130.011827        0.365549391         17.8104154        0.377656662         13.8731632        0.156115048         59.8611228

     3.828125e+009       0.836626031        -117.932376        0.290932541        -120.552716        0.321068227        -116.505994        0.186048661         -130.72355
                      0.290932541        -120.552716        0.374488474          145.08732        0.578480903         20.1052134        0.367167088         17.6310633
                      0.321068227        -116.505994        0.578480903         20.1052134        0.485728154         148.164916        0.379396472         13.6950948
                      0.186048661         -130.72355        0.367167088         17.6310633        0.379396472         13.6950948        0.156682439         59.3833663

   3.85416667e+009       0.841084617        -118.605404        0.287155596        -121.166333        0.316931041        -117.086532        0.183624705        -131.427794
                      0.287155596        -121.166333        0.372114952         144.877047        0.581093071         19.9794842        0.368750735         17.4502377
                      0.316931041        -117.086532        0.581093071         19.9794842        0.483179995         147.957537        0.381093075         13.5150894
                      0.183624705        -131.427794        0.368750735         17.4502377        0.381093075         13.5150894        0.157231125         58.9128159

   3.88020833e+009        0.84541022        -119.269002        0.283422529        -121.768811        0.312833522        -117.656946        0.181233468        -132.123975
                      0.283422529        -121.768811        0.369756007         144.672717        0.583640607         19.8510081        0.370303439         17.2693836
                      0.312833522        -117.656946        0.583640607         19.8510081         0.48064317         147.758199        0.382766794         13.3328568
                      0.181233468        -132.123975        0.370303439         17.2693836        0.382766794         13.3328568        0.157768738         58.4514058

      3.90625e+009       0.849612244        -119.922462        0.279732562        -122.364055        0.308791011        -118.219071        0.178866126        -132.809154
                      0.279732562        -122.364055        0.367405322         144.475737        0.586136525          19.720368        0.371822311         17.0869813
                      0.308791011        -118.219071        0.586136525          19.720368        0.478132967         147.564008        0.384398349         13.1490699
                      0.178866126        -132.809154        0.371822311         17.0869813        0.384398349         13.1490699        0.158278883         57.9944633

   3.93229167e+009       0.853682247        -120.565727        0.276091744        -122.950441        0.304800973        -118.772334        0.176534151        -133.487433
                      0.276091744        -122.950441        0.365076278         144.285901        0.588574948            19.5888        0.373297925         16.9034448
                      0.304800973        -118.772334        0.588574948            19.5888        0.475629651         147.376455        0.385988562         12.9641205
                      0.176534151        -133.487433        0.373297925         16.9034448        0.385988562         12.9641205        0.158777713         57.5458563

   3.95833333e+009       0.857644261        -121.199774        0.272489234        -123.528527        0.300860873        -119.316154        0.174228598        -134.160519
                      0.272489234        -123.528527        0.362760237         144.102452        0.590965408         19.4559536        0.374742853         16.7197466
                      0.300860873        -119.316154        0.590965408         19.4559536         0.47314343         147.193615        0.387547536         12.7777789
                      0.174228598        -134.160519        0.374742853         16.7197466        0.387547536         12.7777789        0.159265326         57.1050796

     3.984375e+009       0.861476241         -121.82427        0.268944859        -124.097176        0.296964486        -119.852571        0.171955067        -134.820937
                      0.268944859        -124.097176        0.360462624         143.924245        0.593308038         19.3218115        0.376154307         16.5343815
                      0.296964486        -119.852571        0.593308038         19.3218115        0.470676795         147.017264        0.389075847         12.5903027
                      0.171955067        -134.820937        0.376154307         16.5343815        0.389075847         12.5903027        0.159732409         56.6702698

   4.01041667e+009       0.865202594        -122.440109        0.265439745        -124.658157        0.293131979        -120.380812         0.16971152        -135.477454
                      0.265439745        -124.658157        0.358177146         143.752698        0.595590239         19.1857633        0.377538066         16.3502297
                      0.293131979        -120.380812        0.595590239         19.1857633        0.468226275         146.845832        0.390563855         12.4019741
                       0.16971152        -135.477454        0.377538066         16.3502297        0.390563855         12.4019741        0.160187542         56.2428716

   4.03645833e+009       0.868809597        -123.046593        0.261985736        -125.211497        0.289347449        -120.899573        0.167496375         -136.12482
                      0.261985736        -125.211497        0.355917347         143.587614        0.597828171         19.0492882        0.378878926         16.1647518
                      0.289347449        -120.899573        0.597828171         19.0492882        0.465794303         146.681116        0.392022075         12.2128622
                      0.167496375         -136.12482        0.378878926         16.1647518        0.392022075         12.2128622        0.160630344         55.8227016

       4.0625e+009       0.872310724        -123.643432        0.258566852        -125.756117        0.285600084        -121.409309        0.165307842        -136.762429
                      0.258566852        -125.756117        0.353668828         143.429487        0.600009204          18.911766        0.380192134         15.9803798
                      0.285600084        -121.409309        0.600009204          18.911766        0.463383032         146.520495        0.393450818         12.0230732
                      0.165307842        -136.762429        0.380192134         15.9803798        0.393450818         12.0230732        0.161052214         55.4075598

   4.08854167e+009       0.875705611        -124.232474        0.255208961         -126.29246        0.281920586        -121.912534        0.163158851        -137.394421
                      0.255208961         -126.29246        0.351451152         143.276826        0.602146142         18.7737631        0.381472219           15.79417
                      0.281920586        -121.912534        0.602146142         18.7737631        0.460994911         146.365776         0.39484039         11.8328675
                      0.163158851        -137.394421        0.381472219           15.79417         0.39484039         11.8328675        0.161469875         55.0010031

   4.11458333e+009       0.879004967        -124.811903        0.251888093        -126.820765        0.278279613        -122.407396        0.161033935        -138.020457
                      0.251888093        -126.820765           0.349242         143.129118        0.604239059         18.6352535        0.382724722         15.6089742
                      0.278279613        -122.407396        0.604239059         18.6352535        0.458621187         146.216379        0.396201268         11.6423242
                      0.161033935        -138.020457        0.382724722         15.6089742        0.396201268         11.6423242        0.161866578         54.5988105

     4.140625e+009       0.882200696        -125.383887        0.248608452        -127.342358        0.274689088        -122.894015        0.158938369        -138.637393
                      0.248608452        -127.342358        0.347057061         142.988455        0.606278548         18.4965115        0.383949618         15.4247408
                      0.274689088        -122.894015        0.606278548         18.4965115        0.456275352         146.072059        0.397533521         11.4514032
                      0.158938369        -138.637393        0.383949618         15.4247408        0.397533521         11.4514032        0.162258348         54.2049048

   4.16666667e+009       0.885308821        -125.947103        0.245382427        -127.857167        0.271152686        -123.373597        0.156864046        -139.247365
                      0.245382427        -127.857167        0.344894043         142.852671        0.608274155         18.3572054        0.385134607         15.2403747
                      0.271152686        -123.373597        0.608274155         18.3572054         0.45394877         145.932214        0.398827804         11.2606277
                      0.156864046        -139.247365        0.385134607         15.2403747        0.398827804         11.2606277        0.162637281          53.816806

      4.21875e+009       0.891234367        -127.049262        0.239058199        -128.860062        0.264230151        -124.307725        0.152825637        -140.444617
                      0.239058199        -128.860062        0.340626714         142.597551        0.612140252          18.078579        0.387441085         14.8734041
                      0.264230151        -124.307725        0.612140252          18.078579        0.449354771         145.668062         0.40134245         10.8786253
                      0.152825637        -140.444617        0.387441085         14.8734041         0.40134245         10.8786253        0.163362923         53.0598167

   4.27083333e+009        0.89681142        -128.119908        0.232918326        -129.837382        0.257499621        -125.213316        0.148898441        -141.618134
                      0.232918326        -129.837382        0.336438016         142.364746        0.615818689         17.7997184        0.389634066         14.5078104
                      0.257499621        -125.213316        0.615818689         17.7997184        0.444861933         145.422226         0.40373705          10.497224
                      0.148898441        -141.618134        0.389634066         14.5078104         0.40373705          10.497224        0.164038069         52.3281214

   4.32291667e+009       0.902070632        -129.160254        0.226951643        -130.785034         0.25095906        -126.093173         0.14508314        -142.765355
                      0.226951643        -130.785034        0.332336611         142.150117        0.619344414         17.5212968        0.391716842         14.1450817
                       0.25095906        -126.093173        0.619344414         17.5212968        0.440465631         145.193618         0.40602329          10.117061
                       0.14508314        -142.765355        0.391716842         14.1450817         0.40602329          10.117061        0.164685566          51.615125

        4.375e+009       0.907015068        -130.171072        0.221159426        -131.706259        0.244606194        -126.942043        0.141383394        -143.888755
                      0.221159426        -131.706259        0.328322819         141.956961        0.622701489         17.2445199        0.393700694         13.7854961
                      0.244606194        -126.942043        0.622701489         17.2445199        0.436155842         144.982151        0.408212192         9.73838882
                      0.141383394        -143.888755        0.393700694         13.7854961        0.408212192         9.73838882          0.1652861         50.9276641

   4.42708333e+009       0.911667783        -131.154413        0.215531238        -132.600753        0.238447082        -127.764764        0.137786544        -144.986859
                      0.215531238        -132.600753        0.324399743          141.78236        0.625909039         16.9685967         0.39559636         13.4290903
                      0.238447082        -127.764764        0.625909039         16.9685967        0.431942444         144.786296        0.410294963         9.36195174
                      0.137786544        -144.986859         0.39559636         13.4290903        0.410294963         9.36195174        0.165857808         50.2616593

   4.47916667e+009       0.916061622        -132.110783        0.210071612        -133.468516        0.232463419        -128.562422        0.134298611        -146.062157
                      0.210071612        -133.468516        0.320564652         141.624632        0.628972915         16.6950561        0.397395063         13.0765959
                      0.232463419        -128.562422        0.628972915         16.6950561        0.427824055         144.606641        0.412282399         8.98801548
                      0.134298611        -146.062157        0.397395063         13.0765959        0.412282399         8.98801548         0.16641289         49.6160506

      4.53125e+009       0.920193922        -133.040816        0.204778598        -134.315443          0.2266598        -129.335294        0.130916653        -147.115939
                      0.204778598        -134.315443        0.316810433         141.485933        0.631895799         16.4245404        0.399117136         12.7277571
                        0.2266598        -129.335294        0.631895799         16.4245404        0.423802884         144.440791        0.414175322         8.61709055
                      0.130916653        -147.115939        0.399117136         12.7277571        0.414175322         8.61709055        0.166921366         48.9910257

   4.58333333e+009       0.924083427        -133.945526        0.199630966        -135.138003        0.221027542        -130.083375        0.127630556        -148.146985
                      0.199630966        -135.138003        0.313147155         141.361623        0.634696643         16.1563188         0.40075363         12.3833182
                      0.221027542        -130.083375        0.634696643         16.1563188        0.419883761         144.288149        0.415993937         8.24901735
                      0.127630556        -148.146985         0.40075363         12.3833182        0.415993937         8.24901735        0.167416372         48.3826607

   4.63541667e+009        0.92775665        -134.826197        0.194642895        -135.934619        0.215557642        -130.810603        0.124447207        -149.159419
                      0.194642895        -135.934619        0.309560184         141.252607        0.637365672         15.8904474        0.402304812         12.0434109
                      0.215557642        -130.810603        0.637365672         15.8904474         0.41605185         144.149508        0.417728594         7.88414262
                      0.124447207        -149.159419        0.402304812         12.0434109        0.417728594         7.88414262        0.167883108         47.7956418

       4.6875e+009       0.931219994        -135.684375        0.189808768         -136.71424        0.210258325        -131.514053        0.121367433        -150.153994
                      0.189808768         -136.71424        0.306077117         141.158936        0.639917729         15.6282098        0.403790288         11.7074569
                      0.210258325        -131.514053        0.639917729         15.6282098        0.412318078         144.023096        0.419379865         7.52300522
                      0.121367433        -150.153994        0.403790288         11.7074569        0.419379865         7.52300522        0.168326616         47.2269267

   4.73958333e+009       0.934487296         -136.51932        0.185101871        -137.471869        0.205115613        -132.196086        0.118373638        -151.128134
                      0.185101871        -137.471869        0.302667892          141.07914        0.642352432         15.3694139        0.405210918         11.3760693
                      0.205115613        -132.196086        0.642352432         15.3694139        0.408665634         143.907687        0.420957497         7.16529716
                      0.118373638        -151.128134        0.405210918         11.3760693        0.420957497         7.16529716        0.168759583         46.6759326

   4.79166667e+009       0.937566497        -137.333235        0.180545713        -138.208335        0.200123823        -132.857624        0.115467366        -152.082943
                      0.180545713        -138.208335        0.299332176         141.013753        0.644679077         15.1136422        0.406566299         11.0490301
                      0.200123823        -132.857624        0.644679077         15.1136422        0.405116036         143.804176         0.42247174         6.81129123
                      0.115467366        -152.082943        0.406566299         11.0490301         0.42247174         6.81129123        0.169166499         46.1424585

      4.84375e+009        0.94046592        -138.126495        0.176136201         -138.92485        0.195285156        -133.497804        0.112657795        -153.023725
                      0.176136201         -138.92485        0.296090055         140.961522        0.646909591         14.8613574        0.407856794           10.72668
                      0.195285156        -133.497804        0.646909591         14.8613574        0.401658581         143.710119        0.423912567          6.4611958
                      0.112657795        -153.023725        0.407856794           10.72668        0.423912567          6.4611958        0.169553037         45.6236647

   4.89583333e+009       0.943215774        -138.899734        0.171841702         -139.62365        0.190587761        -134.119904        0.109933078        -153.947504
                      0.171841702         -139.62365        0.292918043         140.919235        0.649043596         14.6124064        0.409082156         10.4089483
                      0.190587761        -134.119904        0.649043596         14.6124064        0.398278925         143.626132        0.425289782         6.11490077
                      0.109933078        -153.947504        0.409082156         10.4089483        0.425289782         6.11490077        0.169932269         45.1192071

   4.94791667e+009       0.945804466        -139.653649        0.167679964        -140.303804        0.186034891        -134.723421        0.107286854        -154.855185
                      0.167679964        -140.303804        0.289831539         140.889744        0.651073527         14.3677118        0.410262179          10.095555
                      0.186034891        -134.723421        0.651073527         14.3677118         0.39499072         143.552219        0.426613189         5.77233358
                      0.107286854        -154.855185        0.410262179          10.095555        0.426613189         5.77233358        0.170296053         44.6312451

            5e+009       0.948250476        -140.389617        0.163648581         -140.96728        0.181615927        -135.307847          0.1047212        -155.747582
                      0.163648581         -140.96728         0.28682268         140.872227         0.65302798         14.1264696        0.411386613         9.78658605
                      0.181615927        -135.307847         0.65302798         14.1264696        0.391791586         143.486639        0.427882729         5.43371771
                        0.1047212        -155.747582        0.411386613         9.78658605        0.427882729         5.43371771         0.17063626         44.1570917

   5.05208333e+009       0.950570393         -141.10721        0.159732557        -141.610766        0.177320529        -135.872828        0.102233176        -156.625456
                      0.159732557        -141.610766        0.283889965          140.86424        0.654896864         13.8887711        0.412455548           9.482282
                      0.177320529        -135.872828        0.654896864         13.8887711        0.388667322         143.429948        0.429088064           5.098997
                      0.102233176        -156.625456        0.412455548           9.482282        0.429088064           5.098997        0.170980229         43.6966475

   5.10416667e+009       0.952755711        -141.807815        0.155933167        -142.241161        0.173167258        -136.422624       0.0998197999        -157.490297
                      0.155933167        -142.241161        0.281019305         140.866384        0.656679781         13.6544889        0.413478581         9.18239076
                      0.173167258        -136.422624        0.656679781         13.6544889        0.385623703         143.381203        0.430248999         4.76815379
                     0.0998197999        -157.490297        0.413478581         9.18239076        0.430248999         4.76815379        0.171298773         43.2495381

      5.15625e+009       0.954827106        -142.492581        0.152248344        -142.855831         0.16912526        -136.955121       0.0974799576        -158.341681
                      0.152248344        -142.855831        0.278224774         140.878671        0.658398125         13.4239416        0.414455459         8.88690797
                       0.16912526        -136.955121        0.658398125         13.4239416        0.382658532         143.338528        0.431355187         4.44114605
                     0.0974799576        -158.341681        0.414455459         8.88690797        0.431355187         4.44114605        0.171619293         42.8158199

   5.20833333e+009       0.956780136        -143.160643        0.148669396        -143.455374        0.165206693        -137.472722       0.0952097666        -159.180462
                      0.148669396        -143.455374         0.27550495         140.898474        0.660031996         13.1974249        0.415395662         8.59548961
                      0.165206693        -137.472722        0.660031996         13.1974249        0.379773753         143.304205         0.43241637         4.11797825
                     0.0952097666        -159.180462        0.415395662         8.59548961         0.43241637         4.11797825        0.171926808         42.3951907

   5.26041667e+009       0.958638263        -143.813863        0.145191457        -144.038719        0.161402641        -137.975847       0.0930069137        -160.007367
                      0.145191457        -144.038719        0.272847265         140.929264        0.661610165         12.9742351         0.41628907         8.30835827
                      0.161402641        -137.975847        0.661610165         12.9742351        0.376959212         143.275409        0.433432234         3.79864276
                     0.0930069137        -160.007367         0.41628907         8.30835827        0.433432234         3.79864276        0.172221254         41.9827614

       5.3125e+009       0.960391509        -144.451781        0.141815606         -144.60848        0.157711061        -138.462402       0.0908693388        -160.823296
                      0.141815606         -144.60848        0.270256628         140.966712        0.663112752         12.7546701        0.417155374          8.0252707
                      0.157711061        -138.462402        0.663112752         12.7546701        0.374222864           143.2532        0.434412381         3.48292231
                     0.0908693388        -160.823296        0.417155374          8.0252707        0.434412381         3.48292231        0.172507944         41.5855462

   5.36458333e+009       0.962050943        -145.076286        0.138536893        -145.164174        0.154124306        -138.938223        0.088796177        -161.627489
                      0.138536893        -145.164174        0.267740872         141.012333        0.664558874         12.5382527        0.417974253          7.7463731
                      0.154124306        -138.938223        0.664558874         12.5382527        0.371556644         143.236812        0.435346525         3.17090905
                      0.088796177        -161.627489        0.417974253          7.7463731        0.435346525         3.17090905        0.172801021         41.1990256

   5.41666667e+009       0.963626803        -145.686238        0.135358197        -145.708131        0.150645622        -139.393631       0.0867841893        -162.422111
                      0.135358197        -145.708131        0.265278244         141.065283        0.665950318         12.3257445        0.418765416         7.47145465
                      0.150645622        -139.393631        0.665950318         12.3257445        0.368960521         143.226382        0.436254322         2.86247081
                     0.0867841893        -162.422111        0.418765416         7.47145465        0.436254322         2.86247081        0.173071663         40.8224864

      5.46875e+009       0.965117426        -146.283588        0.132266147        -146.238086        0.147268914        -139.840153       0.0848309582         -163.20624
                      0.132266147        -146.238086        0.262875108         141.124041        0.667274765         12.1164066        0.419518457         7.20046739
                      0.147268914        -139.840153        0.667274765         12.1164066         0.36643245         143.219854        0.437115483          2.5577682
                     0.0848309582         -163.20624        0.419518457         7.20046739        0.437115483          2.5577682        0.173347513         40.4564584

   5.52083333e+009       0.966536047        -146.867955        0.129264052         -146.75668         0.14398657        -140.273094        0.082935493        -163.980681
                      0.129264052         -146.75668        0.260533067          141.19182        0.668553503         11.9106389        0.420242952         6.93314545
                       0.14398657        -140.273094        0.668553503         11.9106389        0.363966434         143.218573        0.437939547         2.25635988
                      0.082935493        -163.980681        0.420242952         6.93314545        0.437939547         2.25635988        0.173621557         40.0983833

   5.57291667e+009       0.967871094        -147.440091        0.126348792        -147.263193        0.140794661        -140.691925       0.0810948017        -164.746678
                      0.126348792        -147.263193         0.25825697         141.263966        0.669784107         11.7075385        0.420928876          6.6698379
                      0.140794661        -140.691925        0.669784107         11.7075385        0.361562472         143.222647        0.438736288          1.9584891
                     0.0810948017        -164.746678        0.420928876          6.6698379        0.438736288          1.9584891        0.173877999         39.7524112

        5.625e+009       0.969152886        -148.000194        0.123515715        -147.758106        0.137695873        -141.099423       0.0793078243        -165.503801
                      0.123515715        -147.758106         0.25602658         141.342638        0.670960489         11.5088881        0.421595634         6.41000846
                      0.137695873        -141.099423        0.670960489         11.5088881        0.359226556         143.230905        0.439505325         1.66394237
                     0.0793078243        -165.503801        0.421595634         6.41000846        0.439505325         1.66394237        0.174139384         39.4121017

   5.67708333e+009       0.970362126        -148.548658        0.120760851        -148.241653        0.134678795        -141.492672       0.0775730982        -166.253065
                      0.120760851        -148.241653         0.25385606         141.427609        0.672095879         11.3117715        0.422233086         6.15388004
                      0.134678795        -141.492672        0.672095879         11.3117715        0.356942675         143.241502        0.440236335         1.37266975
                     0.0775730982        -166.253065        0.422233086         6.15388004        0.440236335         1.37266975        0.174396214         39.0841377

   5.72916667e+009       0.971502122        -149.086006        0.118089421        -148.716302        0.131754907        -141.877065       0.0758878365        -166.993839
                      0.118089421        -148.716302        0.251737693         141.517563        0.673186107          11.118812        0.422850652         5.90096837
                      0.131754907        -141.877065        0.673186107          11.118812         0.35472088         143.257706        0.440949016         1.08469146
                     0.0758878365        -166.993839        0.422850652         5.90096837        0.440949016         1.08469146        0.174643145         38.7612565

      5.78125e+009       0.972593801        -149.613338        0.115488367        -149.179779          0.1289124        -142.250224       0.0742508317        -167.727391
                      0.115488367        -149.179779        0.249671567         141.612573        0.674228825          10.929114        0.423438399         5.65175577
                        0.1289124        -142.250224        0.674228825          10.929114        0.352559164          143.27734         0.44163303        0.799823541
                     0.0742508317        -167.727391        0.423438399         5.65175577         0.44163303        0.799823541        0.174898595         38.4510683

   5.83333333e+009       0.973634075        -150.129501        0.112958164        -149.632131         0.12614001        -142.609373       0.0726604709        -168.453459
                      0.112958164        -149.632131        0.247643732         141.713086        0.675241476           10.74147        0.424005681         5.40563841
                       0.12614001        -142.609373        0.675241476           10.74147        0.350449531         143.299481        0.442288079        0.518053629
                     0.0726604709        -168.453459        0.424005681         5.40563841        0.442288079        0.518053629        0.175143427         38.1458348

       5.9375e+009       0.975552105        -151.132676         0.10810328        -150.508283        0.120842548        -143.302688       0.0696136567        -169.886556
                       0.10810328        -150.508283        0.243757819         141.926077        0.677143623          10.376138         0.42507824         4.92315069
                      0.120842548        -143.302688        0.677143623          10.376138        0.346386584         143.351421         0.44353009      -0.0365066289
                     0.0696136567        -169.886556         0.42507824         4.92315069         0.44353009      -0.0365066289        0.175632675         37.5582491

   6.04166667e+009       0.977289042        -152.098188        0.103508306        -151.347395        0.115823145        -143.952987       0.0667357107        -171.295222
                      0.103508306        -151.347395        0.240058708         142.155788        0.678909806         10.0221573        0.426066193         4.45309033
                      0.115823145        -143.952987        0.678909806         10.0221573        0.342526239         143.415139        0.444682747       -0.579535305
                     0.0667357107        -171.295222        0.426066193         4.45309033        0.444682747       -0.579535305        0.176116427         36.9961254

   6.14583333e+009       0.978854389         -153.02894       0.0991564657        -152.151814        0.111071191        -144.564205        0.064016502        -172.681621
                     0.0991564657        -152.151814        0.236525128         142.401426        0.680545948         9.67824075         0.42697734         3.99469553
                      0.111071191        -144.564205        0.680545948         9.67824075        0.338852644         143.488909        0.445753885        -1.11157888
                      0.064016502        -172.681621         0.42697734         3.99469553        0.445753885        -1.11157888        0.176590438         36.4636757

         6.25e+009       0.980283536        -153.926365       0.0950321957        -152.923995        0.106569328        -145.139454       0.0614442309        -174.048071
                     0.0950321957        -152.923995        0.233155856          142.65975        0.682071465         9.34466141        0.427829702          3.5473132
                      0.106569328        -145.139454        0.682071465         9.34466141        0.335355863         143.569535        0.446751462         -1.6330974
                     0.0614442309        -174.048071        0.427829702          3.5473132        0.446751462         -1.6330974        0.177068489         35.9567169

   6.35416667e+009       0.981582994        -154.792756       0.0911214042        -153.665816        0.102301234        -145.679259       0.0590113606        -175.396637
                     0.0911214042        -153.665816        0.229943413         142.929268        0.683492697         9.02021605        0.428621482         3.11053017
                      0.102301234        -145.679259        0.683492697         9.02021605        0.332027991         143.656082        0.447673616        -2.14477172
                     0.0590113606        -175.396637        0.428621482         3.11053017        0.447673616        -2.14477172         0.17754515          35.467901

   6.45833333e+009       0.982748893        -155.630593       0.0874090121         -154.37833       0.0982531642        -146.186528       0.0567073777        -176.729152
                     0.0874090121         -154.37833        0.226874223         143.210411        0.684819354         8.70538842        0.429360877          2.6836127
                     0.0982531642        -146.186528        0.684819354         8.70538842        0.328863248         143.750002        0.448548542        -2.64686407
                     0.0567073777        -176.729152        0.429360877          2.6836127        0.448548542        -2.64686407        0.178022377         35.0041489

       6.5625e+009       0.983823737        -156.440851       0.0838841867        -155.063282       0.0944106384        -146.661214       0.0545256621        -178.047333
                     0.0838841867        -155.063282        0.223946655         143.499546        0.686049681         8.39998184        0.430046379         2.26632801
                     0.0944106384        -146.661214        0.686049681         8.39998184        0.325843494         143.846838        0.449364624        -3.13995452
                     0.0545256621        -178.047333        0.430046379         2.26632801        0.449364624        -3.13995452        0.178500946         34.5607624

   6.66666667e+009        0.98480284        -157.225018       0.0805353298        -155.722202       0.0907615853        -147.105544       0.0524583454        -179.352925
                     0.0805353298        -155.722202         0.22114698         143.797001        0.687200108         8.10258192        0.430686435         1.85800723
                     0.0907615853        -147.105544        0.687200108         8.10258192        0.322957018         143.949409        0.450120312        -3.62445155
                     0.0524583454        -179.352925        0.430686435         1.85800723        0.450120312        -3.62445155        0.178973865         34.1349071

   6.77083333e+009       0.985688827          -157.9853       0.0773504788        -156.357304       0.0872938083        -147.520955       0.0504982221         179.352748
                     0.0773504788        -156.357304        0.218469605         144.104707         0.68827929         7.81300536        0.431289663         1.45815938
                     0.0872938083        -147.520955         0.68827929         7.81300536        0.320215706         144.054846        0.450834177        -4.10070186
                     0.0504982221         179.352748        0.431289663         1.45815938        0.450834177        -4.10070186        0.179452761         33.7267283

        6.875e+009       0.986493914         -158.72276       0.0743201503        -156.968335       0.0839957055        -147.908212       0.0486386398         178.068321
                     0.0743201503        -156.968335        0.215918433         144.416668        0.689285638          7.5309526         0.43185482         1.06655918
                     0.0839957055        -147.908212        0.689285638          7.5309526        0.317589443         144.161372         0.45150501        -4.56929153
                     0.0486386398         178.068321         0.43185482         1.06655918         0.45150501        -4.56929153        0.179941586         33.3327551

   6.97916667e+009       0.987231548        -159.438385       0.0714353419        -157.557392       0.0808587269        -148.268321       0.0468744353         176.792412
                     0.0714353419        -157.557392         0.21346561         144.733778        0.690227819           7.256189        0.432380686        0.682613751
                     0.0808587269        -148.268321        0.690227819           7.256189        0.315080511         144.271436        0.452141445        -5.03031067
                     0.0468744353         176.792412        0.432380686        0.682613751        0.452141445        -5.03031067        0.180422167         32.9561043

   7.08333333e+009       0.987912897        -160.133633       0.0686872757        -158.125633       0.0778720287         -148.60179       0.0451998417         175.524208
                     0.0686872757        -158.125633        0.211119421         145.057337        0.691114207         6.98825349        0.432876173        0.305979611
                     0.0778720287         -148.60179        0.691114207         6.98825349         0.31268669         144.382444        0.452732513        -5.48442693
                     0.0451998417         175.524208        0.432876173        0.305979611        0.452732513        -5.48442693        0.180918773         32.5914486

       7.1875e+009       0.988528434        -160.810067       0.0660672811        -158.673024        0.075027552        -148.910908       0.0436094799         174.262345
                     0.0660672811        -158.673024        0.208871809         145.385519         0.69194348         6.72688405        0.433340268      -0.0636845751
                      0.075027552        -148.910908         0.69194348         6.72688405        0.310394032         144.494724        0.453297045        -5.93169836
                     0.0436094799         174.262345        0.433340268      -0.0636845751        0.453297045        -5.93169836        0.181412226         32.2413377

   7.29166667e+009       0.989092323        -161.467231       0.0635693599        -159.201853       0.0723169428        -149.194811       0.0420992482         173.006181
                     0.0635693599        -159.201853        0.206728466         145.715725        0.692724435         6.47181104        0.433772031       -0.426738409
                     0.0723169428        -149.194811        0.692724435         6.47181104        0.308208343          144.60668        0.453824172        -6.37264895
                     0.0420992482         173.006181        0.433772031       -0.426738409        0.453824172        -6.37264895        0.181909703         31.9036877

   7.39583333e+009       0.989612745        -162.107546       0.0611856873        -159.712476        0.069731813         -149.45476       0.0406633325         171.754682
                     0.0611856873        -159.712476        0.204661533         146.049044        0.693465617         6.22253619        0.434190594       -0.783483979
                      0.069731813         -149.45476        0.693465617         6.22253619        0.306109869         144.720162        0.454323013        -6.80753816
                     0.0406633325         171.754682        0.434190594       -0.783483979        0.454323013        -6.80753816         0.18241908         31.5767607

          7.5e+009       0.990089743        -162.731383       0.0589095632        -160.206102       0.0672666652           -149.692       0.0392981368         170.507189
                     0.0589095632        -160.206102        0.202679313         146.386769        0.694156212         5.97907889        0.434575152        -1.13425523
                     0.0672666652           -149.692        0.694156212         5.97907889        0.304096219         144.832479        0.454802493        -7.23633484
                     0.0392981368         170.507189        0.434575152        -1.13425523        0.454802493        -7.23633484        0.182929718         31.2613413

   7.60416667e+009       0.990520956         -163.33965       0.0567354743        -160.681692       0.0649140377         -149.90621       0.0380002835         169.262993
                     0.0567354743        -160.681692        0.200787356          146.72623        0.694805015         5.74103512        0.434944974        -1.47937288
                     0.0649140377         -149.90621        0.694805015         5.74103512        0.302175517         144.944603        0.455242327        -7.65997275
                     0.0380002835         169.262993        0.434944974        -1.47937288        0.455242327        -7.65997275        0.183440547         30.9570608

   7.70833333e+009       0.990926834        -163.933008       0.0546576594        -161.142728       0.0626677898        -150.099077       0.0367655304         168.021641
                     0.0546576594        -161.142728        0.198963336         147.066313        0.695411151         5.50826031        0.435289346        -1.81899418
                     0.0626677898        -150.099077        0.695411151         5.50826031        0.300325611         145.055805        0.455671394        -8.07807158
                     0.0367655304         168.021641        0.435289346        -1.81899418        0.455671394        -8.07807158        0.183967229         30.6601052

       7.8125e+009       0.991287228        -164.511995       0.0526705842        -161.586723       0.0605220068        -150.270736       0.0355908372          166.78247
                     0.0526705842        -161.586723        0.197210127         147.410709        0.695993514         5.28029622        0.435617616        -2.15335215
                     0.0605220068        -150.270736        0.695993514         5.28029622        0.298554659         145.167086         0.45607921        -8.49113403
                     0.0355908372          166.78247        0.435617616        -2.15335215         0.45607921        -8.49113403        0.184492692         30.3738877

   7.91666667e+009       0.991621165        -165.077776       0.0507700539        -162.017572       0.0584726979        -150.420411       0.0344732602         165.545171
                     0.0507700539        -162.017572        0.195530013         147.752652        0.696531339         5.05708466        0.435929253         -2.4829018
                     0.0584726979        -150.420411        0.696531339         5.05708466        0.296854423         145.277259          0.4564551        -8.89944797
                     0.0344732602         165.545171        0.435929253         -2.4829018          0.4564551        -8.89944797        0.185023606         30.0959465

   8.02083333e+009       0.991931691        -165.630614       0.0489507232        -162.433428       0.0565122139        -150.550014        0.033408974         164.309233
                     0.0489507232        -162.433428         0.19391208          148.09672        0.697043909         4.83842947         0.43622366         -2.8077027
                     0.0565122139        -150.550014        0.697043909         4.83842947        0.295224848         145.386226        0.456818707        -9.30322203
                      0.033408974         164.309233         0.43622366         -2.8077027        0.456818707        -9.30322203        0.185559623         29.8262275

        8.125e+009       0.992219752        -166.171315       0.0472095549        -162.835881       0.0546384195        -150.660412       0.0323962553         163.074606
                     0.0472095549        -162.835881        0.192356276         148.442648        0.697530371         4.62404778        0.436500363        -3.12807613
                     0.0546384195        -150.660412        0.697530371         4.62404778         0.29365764         145.492783        0.457169156        -9.70239702
                     0.0323962553         163.074606        0.436500363        -3.12807613        0.457169156        -9.70239702        0.186108115         29.5626207

   8.22916667e+009       0.992477202        -166.700541       0.0455410402        -163.224717       0.0528462236        -150.749736       0.0314314749         161.840766
                     0.0455410402        -163.224717        0.190859165         148.786032        0.697990088          4.4138215         0.43676881        -3.44400125
                     0.0528462236        -150.749736        0.697990088          4.4138215        0.292155313         145.599551        0.457496243        -10.0975044
                     0.0314314749         161.840766         0.43676881        -3.44400125        0.457496243        -10.0975044        0.186651403          29.308124

   8.33333333e+009       0.992720339        -167.218093       0.0439426087        -163.601115        0.051130844        -150.820121       0.0305129593         160.608399
                     0.0439426087        -163.601115        0.189422335         149.131433        0.698422304         4.20746976        0.437028661         -3.7559068
                      0.051130844        -150.820121        0.698422304         4.20746976        0.290701334         145.704241        0.457819198        -10.4883003
                     0.0305129593         160.608399        0.437028661         -3.7559068        0.457819198        -10.4883003        0.187214379         29.0576361

       8.4375e+009       0.992939509        -167.725175       0.0424098502          -163.9659        0.049488512         -150.87219        0.029638585         159.375399
                     0.0424098502          -163.9659        0.188037636         149.476768        0.698836573         4.00498263        0.437269396        -4.06379024
                      0.049488512         -150.87219        0.698836573         4.00498263         0.28930952         145.806243        0.458117912        -10.8754182
                      0.029638585         159.375399        0.437269396        -4.06379024        0.458117912        -10.8754182        0.187770616         28.8156063

   8.54166667e+009       0.993139754        -168.221992       0.0409399244         -164.31797       0.0479164575        -150.904747        0.028804331         158.144293
                     0.0409399244         -164.31797        0.186705406         149.821495        0.699222169         3.80606229        0.437490774         -4.3680997
                     0.0479164575        -150.904747        0.699222169         3.80606229        0.287965896         145.905985        0.458402036        -11.2589463
                      0.028804331         158.144293        0.437490774         -4.3680997        0.458402036        -11.2589463        0.188336403         28.5784837

   8.64583333e+009       0.993324358        -168.709298       0.0395294878        -164.659072       0.0464118313        -150.919376       0.0280109999         156.915021
                     0.0395294878        -164.659072        0.185414793         150.164855        0.699588636          3.6106242        0.437712396        -4.66880735
                     0.0464118313        -150.919376        0.699588636          3.6106242         0.28667309         146.006161        0.458681032        -11.6388158
                     0.0280109999         156.915021        0.437712396        -4.66880735        0.458681032        -11.6388158        0.188912043         28.3465225

         8.75e+009        0.99349899        -169.187268       0.0381766487        -164.989502       0.0449696676        -150.915077       0.0272545382         155.685315
                     0.0381766487        -164.989502        0.184174768         150.507861        0.699935492         3.41856272          0.4379238        -4.96590977
                     0.0449696676        -150.915077        0.699935492         3.41856272        0.285428378         146.103938        0.458944368        -12.0152014
                     0.0272545382         155.685315          0.4379238        -4.96590977        0.458944368        -12.0152014        0.189487125          28.120333

   8.85416667e+009       0.993649811        -169.655854       0.0368775962        -165.309128       0.0435871505        -150.893942       0.0265347102         154.455703
                     0.0368775962        -165.309128        0.182984193         150.850782        0.700262224           3.229691        0.438124851        -5.25983205
                     0.0435871505        -150.893942        0.700262224           3.229691        0.284231685         146.199233        0.459192177        -12.3885301
                     0.0265347102         154.455703        0.438124851        -5.25983205        0.459192177        -12.3885301        0.190079594         27.8973024

   8.95833333e+009       0.993798993         -170.11656       0.0356295433        -165.618274       0.0422629345        -150.854934       0.0258482156          153.23074
                     0.0356295433        -165.618274        0.181833202         151.192381        0.700568406         3.04390441        0.438315193        -5.55060746
                     0.0422629345        -150.854934        0.700568406         3.04390441         0.28307462         146.290846        0.459433107        -12.7582206
                     0.0258482156          153.23074        0.438315193        -5.55060746        0.459433107        -12.7582206        0.190662324           27.68138

       9.0625e+009       0.993925187        -170.568667       0.0344307566        -165.917585       0.0409929639          -150.7981       0.0251940229         152.004835
                     0.0344307566        -165.917585        0.180721114         151.532702        0.700863568         2.86097638        0.438494577        -5.83839924
                     0.0409929639          -150.7981        0.700863568         2.86097638        0.281959877         146.381508        0.459667989        -13.1250398
                     0.0251940229         152.004835        0.438494577        -5.83839924        0.459667989        -13.1250398         0.19126077         27.4677871

   9.16666667e+009       0.994044652        -171.012421       0.0332786373        -166.207035       0.0397762972        -150.724479       0.0245712039         150.782099
                     0.0332786373        -166.207035        0.179647733         151.871512        0.701137397         2.68093091        0.438672726        -6.12323074
                     0.0397762972        -150.724479        0.701137397         2.68093091        0.280887424         146.471169        0.459897578        -13.4896276
                     0.0245712039         150.782099        0.438672726        -6.12323074        0.459897578        -13.4896276        0.191857088         27.2592865

        9.375e+009       0.994261442        -171.878618           0.031107        -166.758773       0.0374899181        -150.526193       0.0234128167         148.342478
                         0.031107        -166.758773        0.177613043          152.54566        0.701649501         2.32881209         0.43900439        -6.68462971
                     0.0374899181        -150.526193        0.701649501         2.32881209        0.278849703         146.642172        0.460312886        -14.2092252
                     0.0234128167         148.342478         0.43900439        -6.68462971        0.460312886        -14.2092252        0.193078394         26.8519716

   9.58333333e+009       0.994433675         -172.71669        0.029097682           -167.275       0.0353867381        -150.263955       0.0223604852         145.919059
                      0.029097682           -167.275        0.175724034         153.215349        0.702112057         1.98674282        0.439298738         -7.2360574
                     0.0353867381        -150.263955        0.702112057         1.98674282        0.276941667         146.805704        0.460709848        -14.9188399
                     0.0223604852         145.919059        0.439298738         -7.2360574        0.460709848        -14.9188399          0.1943133         26.4587666

   9.79166667e+009       0.994587589        -173.528439       0.0272383048        -167.758739       0.0334513223         -149.93602        0.021406471         143.510177
                     0.0272383048        -167.758739        0.173948902         153.876867        0.702522719         1.65404645        0.439583931        -7.77771664
                     0.0334513223         -149.93602        0.702522719         1.65404645         0.27516295          146.96138        0.461066439        -15.6193664
                      0.021406471         143.510177        0.439583931        -7.77771664        0.461066439        -15.6193664         0.19556867          26.077388

            1e+010       0.994710528        -174.316115       0.0255151887        -168.211138       0.0316707089        -149.548489       0.0205413663         141.125869
                     0.0255151887        -168.211138        0.172301472          154.53341        0.702889326         1.32986794        0.439839012        -8.31086228
                     0.0316707089        -149.548489        0.702889326         1.32986794        0.273504802         147.107689        0.461411783        -16.3112654
                     0.0205413663         141.125869        0.439839012        -8.31086228        0.461411783        -16.3112654        0.196850712         25.7051362

   1.02083333e+010       0.994802937        -175.081675       0.0239170014        -168.634629       0.0300307942        -149.102338       0.0197561789         138.769878
                     0.0239170014        -168.634629        0.170759409         155.182771        0.703220058         1.01369973        0.440082616        -8.83578249
                     0.0300307942        -149.102338        0.703220058         1.01369973        0.271953017           147.2449        0.461721492        -16.9942517
                     0.0197561789         138.769878        0.440082616        -8.83578249        0.461721492        -16.9942517        0.198139622         25.3436589

   1.04166667e+010       0.994888208        -175.826494       0.0224338667        -169.030917       0.0285218973        -148.600431       0.0190456278         136.446663
                     0.0224338667        -169.030917        0.169319683         155.824868        0.703513249         0.70495028        0.440313894        -9.35322093
                     0.0285218973        -148.600431        0.703513249         0.70495028         0.27048805         147.375119        0.462027824        -17.6698374
                     0.0190456278         136.446663        0.440313894        -9.35322093        0.462027824        -17.6698374        0.199460359         24.9880864

       1.0625e+010       0.994951128        -176.551941       0.0210562013        -169.401707       0.0271339419        -148.044307       0.0184009011           134.1589
                     0.0210562013        -169.401707        0.167968603         156.459571        0.703767419        0.403119533        0.440522016        -9.86388484
                     0.0271339419        -148.044307        0.703767419        0.403119533        0.269123453         147.497457        0.462309832        -18.3389301
                     0.0184009011           134.1589        0.440522016        -9.86388484        0.462309832        -18.3389301        0.200784589         24.6415073

   1.08333333e+010       0.994998126         -177.25929       0.0197766705        -169.749208       0.0258571055        -147.439585       0.0178172942         131.917417
                     0.0197766705        -169.749208        0.166703724         157.086721        0.704001244        0.107722449        0.440716029        -10.3680568
                     0.0258571055        -147.439585        0.704001244        0.107722449        0.267831366         147.612977        0.462572023        -19.0001677
                     0.0178172942         131.917417        0.440716029        -10.3680568        0.462572023        -19.0001677         0.20213759         24.2992161

   1.10416667e+010       0.995027015        -177.949696       0.0185881455        -170.075728       0.0246839118         -146.78891       0.0172898613         129.724955
                     0.0185881455        -170.075728        0.165521922         157.706851         0.70420354       -0.181674691        0.440905246        -10.8661006
                     0.0246839118         -146.78891         0.70420354       -0.181674691        0.266630712         147.719001        0.462819063        -19.6560725
                     0.0172898613         129.724955        0.440905246        -10.8661006        0.462819063        -19.6560725         0.20349974         23.9627748

        1.125e+010       0.995056801        -178.624329       0.0174817267        -170.382069       0.0236068184        -146.095869       0.0168113117         127.585632
                     0.0174817267        -170.382069        0.164411301         158.318957        0.704373244       -0.465473736        0.441079272        -11.3587177
                     0.0236068184        -146.095869        0.704373244       -0.465473736        0.265488324          147.81847        0.463058969        -20.3063768
                     0.0168113117         127.585632        0.441079272        -11.3587177        0.463058969        -20.3063768        0.204879578         23.6307228

   1.14583333e+010       0.995067663         -179.28415       0.0164545756        -170.672203       0.0226176351         -145.36701       0.0163784811         125.505877
                     0.0164545756        -170.672203        0.163378594         158.924722        0.704529402       -0.744029844        0.441237489        -11.8462577
                     0.0226176351         -145.36701        0.704529402       -0.744029844        0.264417816         147.910551        0.463280971        -20.9516484
                     0.0163784811         125.505877        0.441237489        -11.8462577        0.463280971        -20.9516484          0.2062666         23.3033795

   1.16666667e+010       0.995080741        -179.930082       0.0154980735        -170.946593       0.0217111718        -144.602826       0.0159875598         123.485709
                     0.0154980735        -170.946593        0.162402702          159.52208        0.704661162        -1.01772558        0.441399123        -12.3286416
                     0.0217111718        -144.602826        0.704661162        -1.01772558        0.263399934         147.997614        0.463493101        -21.5915988
                     0.0159875598         123.485709        0.441399123        -12.3286416        0.463493101        -21.5915988        0.207678288         22.9780113

       1.1875e+010       0.995078027         179.437074       0.0146086401        -171.208394       0.0208814966        -143.816082        0.015633381         121.532591
                     0.0146086401        -171.208394        0.161500313         160.113735        0.704777734        -1.28678375        0.441544147        -12.8067278
                     0.0208814966        -143.816082        0.704777734        -1.28678375        0.262453626         148.076997         0.46370327        -22.2258914
                      0.015633381         121.532591        0.441544147        -12.8067278         0.46370327        -22.2258914        0.209095042         22.6560353

   1.20833333e+010       0.995062284         178.816472       0.0137817925        -171.460395       0.0201230481        -143.004822       0.0153127548         119.648163
                     0.0137817925        -171.460395        0.160650737         160.697499         0.70486842        -1.55152873        0.441681275        -13.2801847
                     0.0201230481        -143.004822         0.70486842        -1.55152873        0.261551198         148.149962        0.463895502          -22.85672
                     0.0153127548         119.648163        0.441681275        -13.2801847        0.463895502          -22.85672        0.210526039         22.3363617

   1.22916667e+010       0.995056908         178.207518       0.0130121484         -171.70438        0.019429475         -142.17933       0.0150230833         117.833784
                     0.0130121484         -171.70438        0.159852039         161.273752        0.704942615        -1.81229664        0.441810845        -13.7497056
                      0.019429475         -142.17933        0.704942615        -1.81229664        0.260706299         148.215694        0.464087306        -23.4832563
                     0.0150230833         117.833784        0.441810845        -13.7497056        0.464087306        -23.4832563        0.211979417         22.0172333

         1.25e+010       0.995036006         177.609382       0.0122973328         -171.94475       0.0187983234        -141.344952       0.0147603827         116.093212
                     0.0122973328         -171.94475        0.159102385         161.842918        0.705009724        -2.06924589         0.44194331        -14.2157864
                     0.0187983234        -141.344952        0.705009724        -2.06924589        0.259899789          148.27667        0.464264408        -24.1049619
                     0.0147603827         116.093212         0.44194331        -14.2157864        0.464264408        -24.1049619        0.213436325         21.7004655

   1.27083333e+010       0.995014154         177.021509       0.0116320806        -172.183367       0.0182242749        -140.508411       0.0145227875         114.425442
                     0.0116320806        -172.183367        0.158409867         162.406213        0.705049257        -2.32270028        0.442058703        -14.6791098
                     0.0182242749        -140.508411        0.705049257        -2.32270028        0.259136846         148.330937        0.464443064        -24.7237022
                     0.0145227875         114.425442        0.442058703        -14.6791098        0.464443064        -24.7237022        0.214905697         21.3847957

   1.29166667e+010       0.994986432         176.443314       0.0110141286        -172.424607       0.0177025973        -139.673934       0.0143080594         112.831731
                     0.0110141286        -172.424607        0.157763633         162.962635        0.705080718        -2.57278482        0.442175847        -15.1390856
                     0.0177025973        -139.673934        0.705080718        -2.57278482        0.258420653         148.381459        0.464609248        -25.3389611
                     0.0143080594         112.831731        0.442175847        -15.1390856        0.464609248        -25.3389611         0.21638652         21.0695056

       1.3125e+010       0.994948412         175.874208        0.010441272        -172.672427       0.0172300586        -138.849736       0.0141132101         111.312894
                      0.010441272        -172.672427        0.157152486          163.51168        0.705093679        -2.81971589        0.442281822        -15.5948422
                     0.0172300586        -138.849736        0.705093679        -2.81971589        0.257739361         148.423955        0.464775494        -25.9514335
                     0.0141132101         111.312894        0.442281822        -15.5948422        0.464775494        -25.9514335        0.217878905         20.7546278

   1.33333333e+010       0.994915985         175.313748      0.00990865566        -172.929277       0.0168032809          -138.0394       0.0139366003         109.868813
                    0.00990865566        -172.929277        0.156584724         164.054654        0.705097839        -3.06379909        0.442391018        -16.0485785
                     0.0168032809          -138.0394        0.705097839        -3.06379909        0.257090948         148.463309        0.464927727        -26.5606422
                     0.0139366003         109.868813        0.442391018        -16.0485785        0.464927727        -26.5606422        0.219372891         20.4406174

   1.36111111e+010       0.994869411         174.579144      0.00925892112        -173.295297       0.0162987806        -136.993951       0.0137261311          108.05835
                    0.00925892112        -173.295297        0.155895499         164.769573        0.705090034        -3.38483196        0.442525481        -16.6507547
                     0.0162987806        -136.993951        0.705090034        -3.38483196        0.256288092         148.507908        0.465129893        -27.3677214
                     0.0137261311          108.05835        0.442525481        -16.6507547        0.465129893        -27.3677214        0.221389236         20.0210488

   1.38888889e+010       0.994809607          173.85844      0.00867259275        -173.696493       0.0158606937        -135.998813        0.013542291         106.374642
                    0.00867259275        -173.696493        0.155263907         165.472927        0.705050659        -3.70133989        0.442652799        -17.2466174
                     0.0158606937        -135.998813        0.705050659        -3.70133989        0.255533761         148.543649        0.465329503        -28.1704111
                      0.013542291         106.374642        0.442652799        -17.2466174        0.465329503        -28.1704111        0.223417263         19.6014506

   1.41666667e+010       0.994751399         173.149678      0.00814454602        -174.144105       0.0154842352        -135.068029        0.013379971         104.817909
                    0.00814454602        -174.144105        0.154706931         166.167117        0.704999093        -4.01366651        0.442771174        -17.8403601
                     0.0154842352        -135.068029        0.704999093        -4.01366651        0.254831198         148.573525        0.465516459        -28.9694874
                      0.013379971         104.817909        0.442771174        -17.8403601        0.465516459        -28.9694874         0.22546543         19.1800725

   1.44444444e+010       0.994697536         172.452594      0.00767030422        -174.649188       0.0151611169        -134.206318       0.0132374145         103.382011
                    0.00767030422        -174.649188        0.154193479         166.849694        0.704934718         -4.3220801        0.442883313        -18.4292214
                     0.0151611169        -134.206318        0.704934718         -4.3220801        0.254177037         148.594371        0.465693397         -29.763499
                     0.0132374145         103.382011        0.442883313        -18.4292214        0.465693397         -29.763499        0.227524748          18.757863

   1.47222222e+010       0.994632162         171.766436      0.00724580056        -175.222822       0.0148873806        -133.426844       0.0131115361          102.06326
                    0.00724580056        -175.222822        0.153741064         167.522771         0.70484711         -4.6269955        0.442994614        -19.0157399
                     0.0148873806        -133.426844         0.70484711         -4.6269955        0.253560816         148.609961        0.465877521        -30.5541524
                     0.0131115361          102.06326        0.442994614        -19.0157399        0.465877521        -30.5541524        0.229594679          18.334174

          1.5e+010       0.994571328         171.090117      0.00686737991        -175.875687       0.0146571369        -132.733098       0.0130016727         100.855767
                    0.00686737991        -175.875687        0.153347539         168.187391        0.704745712         -4.9285428        0.443101209        -19.5987652
                     0.0146571369        -132.733098        0.704745712         -4.9285428        0.253001468         148.617563        0.466045545         -31.341797
                     0.0130016727         100.855767        0.443101209        -19.5987652        0.466045545         -31.341797        0.231675382         17.9088464

   1.52777778e+010       0.994499126         170.423452      0.00653176331        -176.617627       0.0144663463        -132.127637       0.0129055702         99.7542708
                    0.00653176331        -176.617627        0.152992106         168.841733        0.704630229        -5.22707094        0.443202318        -20.1783801
                     0.0144663463        -132.127637        0.704630229        -5.22707094        0.252466281         148.620568         0.46621353        -32.1253615
                     0.0129055702         99.7542708        0.443202318        -20.1783801         0.46621353        -32.1253615        0.233775982         17.4805234

   1.55555556e+010       0.994432948         169.765394      0.00623601602        -177.457185       0.0143099658        -131.617878       0.0128213555         98.7539426
                    0.00623601602        -177.457185        0.152682948         169.487122        0.704500266        -5.52276671        0.443291372        -20.7563359
                     0.0143099658        -131.617878        0.704500266        -5.52276671        0.251968998         148.618187        0.466385667        -32.9060317
                     0.0128213555         98.7539426        0.443291372        -20.7563359        0.466385667        -32.9060317        0.235877975         17.0507959

   1.58333333e+010        0.99435971         169.115191       0.0059775177         -178.40111       0.0141845004        -131.203861       0.0127474494          97.849782
                     0.0059775177         -178.40111        0.152428452         170.124758        0.704365527        -5.81581535        0.443386653        -21.3318002
                     0.0141845004        -131.203861        0.704365527        -5.81581535        0.251509622         148.610391        0.466544469         -33.685299
                     0.0127474494          97.849782        0.443386653        -21.3318002        0.466544469         -33.685299        0.237990854         16.6185361

   1.61111111e+010       0.994296368         168.472408      0.00575393363        -179.453891        0.014086943        -130.885491       0.0126834852         97.0349187
                    0.00575393363        -179.453891        0.152207906         170.753161        0.704205831         -6.1065642        0.443469058        -21.9057733
                      0.014086943        -130.885491        0.704205831         -6.1065642        0.251079627         148.595964        0.466700425        -34.4609751
                     0.0126834852         97.0349187        0.443469058        -21.9057733        0.466700425        -34.4609751        0.240114935         16.1836178

   1.63888889e+010       0.994216923         167.837301      0.00556318579         179.382656       0.0140152549        -130.658895       0.0126293715         96.3042203
                    0.00556318579         179.382656        0.152029692         171.374009        0.704040836        -6.39503082        0.443556756        -22.4773765
                     0.0140152549        -130.658895        0.704040836        -6.39503082        0.250682354         148.578019        0.466858227        -35.2342249
                     0.0126293715         96.3042203        0.443556756        -22.4773765        0.466858227        -35.2342249        0.242240663         15.7463348

   1.66666667e+010       0.994143095         167.208328      0.00540342343         178.109688       0.0139651921        -130.526623       0.0125822018         95.6535011
                    0.00540342343         178.109688        0.151892936         171.987205         0.70387034        -6.68138941        0.443640029        -23.0471543
                     0.0139651921        -130.526623         0.70387034        -6.68138941         0.25030407         148.557305        0.467009096        -36.0059055
                     0.0125822018         95.6535011        0.443640029        -23.0471543        0.467009096        -36.0059055        0.244387926         15.3054963

   1.69444444e+010       0.994071369         166.585421      0.00527299277         176.731485       0.0139361202        -130.481695       0.0125431842          95.075614
                    0.00527299277         176.731485        0.151796791         172.592676        0.703674455         -6.9660925        0.443709325         -23.615699
                     0.0139361202        -130.481695        0.703674455         -6.9660925        0.249955228         148.529903        0.467160635        -36.7754595
                     0.0125431842          95.075614        0.443709325         -23.615699        0.467160635        -36.7754595        0.246528193         14.8628505

   1.72222222e+010       0.994000732         165.967951      0.00517040642         175.255419       0.0139242792        -130.526001       0.0125117161          94.566435
                    0.00517040642         175.255419        0.151740202         173.191118          0.7034825        -7.24878766        0.443786734        -24.1832415
                     0.0139242792        -130.526001          0.7034825        -7.24878766         0.24962542          148.49971        0.467312249        -37.5430259
                     0.0125117161          94.566435        0.443786734        -24.1832415        0.467312249        -37.5430259        0.248681148         14.4170116

         1.75e+010       0.993915927         165.356256      0.00509431299         173.691723       0.0139299988        -130.648317       0.0124862794         94.1207619
                    0.00509431299         173.691723        0.151712393         173.782465        0.703274924        -7.53009295        0.443854598         -24.748003
                     0.0139299988        -130.648317        0.703274924        -7.53009295        0.249323188         148.467924        0.467455547         -38.309505
                     0.0124862794         94.1207619        0.443854598         -24.748003        0.467455547         -38.309505        0.250837311         13.9682128

   1.77777778e+010       0.993840928         164.748876      0.00504346828         172.053063       0.0139500844         -130.85117       0.0124664617         93.7338078
                    0.00504346828         172.053063        0.151712761         174.366443        0.703051191        -7.80987137        0.443916096        -25.3141294
                     0.0139500844         -130.85117        0.703051191        -7.80987137        0.249040023         148.433343        0.467605804        -39.0735318
                     0.0124664617         93.7338078        0.443916096        -25.3141294        0.467605804        -39.0735318        0.252997612         13.5167417

   1.80555556e+010       0.993760993         164.146155      0.00501670895          170.35395       0.0139843127        -131.125336        0.012452926         93.4005168
                    0.00501670895          170.35395        0.151760445         174.944209        0.702821476        -8.08835575        0.443976468        -25.8770893
                     0.0139843127        -131.125336        0.702821476        -8.08835575         0.24877267           148.3928        0.467753366        -39.8377221
                      0.012452926         93.4005168        0.443976468        -25.8770893        0.467753366        -39.8377221        0.255162502         13.0624435

   1.83333333e+010       0.993676399         163.547463      0.00501292997         168.610039       0.0140311244        -131.467271        0.012445406         93.1164929
                    0.00501292997         168.610039        0.151834849         175.515453        0.702584369        -8.36491319        0.444034967        -26.4398292
                     0.0140311244        -131.467271        0.702584369        -8.36491319        0.248527715         148.352625        0.467892966         -40.599568
                      0.012445406         93.1164929        0.444034967        -26.4398292        0.467892966         -40.599568        0.257342225         12.6046844

   1.86111111e+010       0.993594506         162.952895      0.00503106661         166.837377       0.0140892051        -131.874163       0.0124426888          92.877536
                    0.00503106661         166.837377        0.151935399         176.080318        0.702343419         -8.6416541        0.444091566        -27.0024106
                     0.0140892051        -131.874163        0.702343419         -8.6416541         0.24830715         148.307693        0.468037159        -41.3610844
                     0.0124426888          92.877536        0.444091566        -27.0024106        0.468037159        -41.3610844        0.259518008         12.1445321

   1.88888889e+010       0.993506579         162.361666      0.00507008124         165.051681       0.0141579556        -132.340057       0.0124446069         92.6795757
                    0.00507008124         165.051681        0.152071517         176.639332        0.702084576         -8.9165394        0.444141625        -27.5637516
                     0.0141579556        -132.340057        0.702084576         -8.9165394        0.248095244         148.263896        0.468172519        -42.1205683
                     0.0124446069         92.6795757        0.444141625        -27.5637516        0.468172519        -42.1205683        0.261690128         11.6815693

   1.91666667e+010       0.993410816         161.773702      0.00512895509         163.267701       0.0142368541        -132.859229        0.012451027         92.5185342
                    0.00512895509         163.267701        0.152232747         177.192288        0.701820565        -9.19107604        0.444189599        -28.1250691
                     0.0142368541        -132.859229        0.701820565        -9.19107604        0.247894016         148.216095        0.468312094        -42.8799923
                      0.012451027         92.5185342        0.444189599        -28.1250691        0.468312094        -42.8799923        0.263869517         11.2158217

   1.94444444e+010       0.993318155         161.188567       0.0052066841         161.498719       0.0143254473         -133.42623       0.0124618472         92.3907598
                     0.0052066841         161.498719        0.152428607         177.739587        0.701549663        -9.46447045        0.444244275         -28.685806
                     0.0143254473         -133.42623        0.701549663        -9.46447045        0.247720502         148.166726        0.468449057         -43.638584
                     0.0124618472         92.3907598        0.444244275         -28.685806        0.468449057         -43.638584         0.26605654         10.7469444

   1.97222222e+010        0.99322708         160.606203      0.00530227835         159.756197       0.0144220444        -134.042022        0.012477986         92.2923994
                    0.00530227835         159.756197        0.152648679         178.281229        0.701271651        -9.73673573        0.444283205        -29.2461258
                     0.0144220444        -134.042022        0.701271651        -9.73673573        0.247552454         148.115322        0.468590228        -44.3973638
                      0.012477986         92.2923994        0.444283205        -29.2461258        0.468590228        -44.3973638        0.268242149         10.2754061

            2e+010       0.993117315          160.02616      0.00541476383         158.049601       0.0145262991        -134.695995        0.012496385          92.220699
                    0.00541476383         158.049601        0.152902562         178.817522        0.700978206        -10.0088321        0.444314994        -29.8055011
                     0.0145262991        -134.695995        0.700978206        -10.0088321        0.247393092         148.065073        0.468721581        -45.1547199
                      0.012496385          92.220699        0.444314994        -29.8055011        0.468721581        -45.1547199        0.270426921         9.80102543

