! AWR Design Environment (7688) Thu Oct 13 15:18:23 2016
! Document = 'CGHV50200F_OMN_Spara'
! nPorts: 2, nXvals: 201

# HZ S DB R 50
!Freq DBS11 AngS11 DBS21 AngS21 DBS12 AngS12 DBS22 AngS22 
1000000 -43.875993 -81.527 -0.010168441 -0.38367 -0.010168441 -0.38367 -43.87016 -81.829 
1e+008 -5.4501509 -122.48 -1.480564 -34.068 -1.480564 -34.068 -5.4765443 -125.62 
2e+008 -2.1298691 -141.99 -4.1595944 -55.091 -4.1595944 -55.091 -2.1605582 -148.24 
3e+008 -1.0888558 -152.64 -6.6047393 -67.304 -6.6047393 -67.304 -1.1193332 -162.01 
4e+008 -0.65606316 -158.98 -8.6223605 -75.214 -8.6223605 -75.214 -0.68862889 -171.49 
5e+008 -0.44013517 -163.11 -10.282166 -80.927 -10.282166 -80.927 -0.47611946 -178.77 
6e+008 -0.31827912 -166.02 -11.66719 -85.414 -11.66719 -85.414 -0.35783316 175.17 
7e+008 -0.243101 -168.18 -12.839779 -89.159 -12.839779 -89.159 -0.28599304 169.85 
8e+008 -0.1937558 -169.85 -13.843663 -92.428 -13.843663 -92.428 -0.23917162 164.99 
9e+008 -0.15962791 -171.19 -14.7112 -95.379 -14.7112 -95.379 -0.2069998 160.44 
1e+009 -0.13524447 -172.29 -15.46491 -98.111 -15.46491 -98.111 -0.18399128 156.09 
1.1e+009 -0.11726582 -173.22 -16.121932 -100.69 -16.121932 -100.69 -0.16706257 151.88 
1.2e+009 -0.1036304 -174.02 -16.695707 -103.16 -16.695707 -103.16 -0.15458659 147.76 
1.3e+009 -0.093176427 -174.72 -17.196126 -105.55 -17.196126 -105.55 -0.14548425 143.69 
1.4e+009 -0.085015265 -175.34 -17.630737 -107.89 -17.630737 -107.89 -0.13903884 139.65 
1.5e+009 -0.078614558 -175.89 -18.006387 -110.19 -18.006387 -110.19 -0.13506803 135.62 
1.6e+009 -0.073620024 -176.39 -18.328514 -112.48 -18.328514 -112.48 -0.132951 131.57 
1.7e+009 -0.069678998 -176.85 -18.599982 -114.76 -18.599982 -114.76 -0.13268641 127.5 
1.8e+009 -0.066614991 -177.28 -18.824649 -117.05 -18.824649 -117.05 -0.13400945 123.38 
1.9e+009 -0.064252067 -177.67 -19.005564 -119.35 -19.005564 -119.35 -0.13665614 119.21 
2e+009 -0.062502168 -178.04 -19.144553 -121.68 -19.144553 -121.68 -0.14045112 114.97 
2.1e+009 -0.061364922 -178.38 -19.242709 -124.04 -19.242709 -124.04 -0.1453076 110.64 
2.2e+009 -0.060665152 -178.71 -19.301819 -126.45 -19.301819 -126.45 -0.15096218 106.21 
2.3e+009 -0.060490219 -179.02 -19.323486 -128.91 -19.323486 -128.91 -0.157328 101.66 
2.4e+009 -0.06075262 -179.32 -19.307431 -131.43 -19.307431 -131.43 -0.16422957 96.972 
2.5e+009 -0.061364922 -179.61 -19.255455 -134.02 -19.255455 -134.02 -0.17140239 92.117 
2.6e+009 -0.062502168 -179.88 -19.165832 -136.71 -19.165832 -136.71 -0.17884714 87.071 
2.7e+009 -0.064164564 179.85 -19.040492 -139.49 -19.040492 -139.49 -0.18647575 81.803 
2.8e+009 -0.066352413 179.6 -18.877918 -142.4 -18.877918 -142.4 -0.1941999 76.275 
2.9e+009 -0.06906611 179.35 -18.679448 -145.46 -18.679448 -145.46 -0.20210873 70.445 
3e+009 -0.072481322 179.1 -18.44465 -148.68 -18.44465 -148.68 -0.21073667 64.263 
3.1e+009 -0.076598874 178.87 -18.174401 -152.1 -18.174401 -152.1 -0.22026404 57.671 
3.2e+009 -0.081595123 178.64 -17.870063 -155.75 -17.870063 -155.75 -0.23167501 50.602 
3.3e+009 -0.087559321 178.41 -17.532769 -159.68 -17.532769 -159.68 -0.24569179 42.98 
3.4e+009 -0.094581272 178.2 -17.165989 -163.93 -17.165989 -163.93 -0.26322224 34.718 
3.5e+009 -0.10283932 177.99 -16.774437 -168.54 -16.774437 -168.54 -0.2853647 25.721 
3.6e+009 -0.112337 177.79 -16.364271 -173.57 -16.364271 -173.57 -0.31260463 15.882 
3.7e+009 -0.12307837 177.61 -15.945331 -179.05 -15.945331 -179.05 -0.34544186 5.0954 
3.8e+009 -0.13489159 177.44 -15.529043 174.95 -15.529043 174.95 -0.38321355 -6.7408 
3.9e+009 -0.14733929 177.29 -15.130805 168.42 -15.130805 168.42 -0.42479795 -19.704 
4e+009 -0.15971638 177.17 -14.769033 161.34 -14.769033 161.34 -0.46731564 -33.823 
4.1e+009 -0.17095945 177.07 -14.466169 153.75 -14.466169 153.75 -0.50691123 -49.045 
4.2e+009 -0.17982252 176.99 -14.242622 145.73 -14.242622 145.73 -0.53864425 -65.206 
4.3e+009 -0.18505597 176.93 -14.117292 137.4 -14.117292 137.4 -0.55770281 -82.02 
4.4e+009 -0.18585457 176.88 -14.1001 128.96 -14.1001 128.96 -0.56094508 -99.099 
4.5e+009 -0.1820397 176.83 -14.192629 120.6 -14.192629 120.6 -0.5481683 -116.01 
4.6e+009 -0.17441497 176.76 -14.384791 112.49 -14.384791 112.49 -0.52165636 -132.35 
4.7e+009 -0.16405254 176.68 -14.659383 104.79 -14.659383 104.79 -0.48594259 -147.82 
4.8e+009 -0.15228801 176.57 -14.995016 97.577 -14.995016 97.577 -0.44571076 -162.23 
4.9e+009 -0.14027458 176.44 -15.370098 90.895 -15.370098 90.895 -0.40493635 -175.5 
5e+009 -0.12863034 176.3 -15.764245 84.74 -15.764245 84.74 -0.36625485 172.34 
5.1e+009 -0.11805821 176.14 -16.161483 79.082 -16.161483 79.082 -0.33126332 161.22 
5.2e+009 -0.10855428 175.97 -16.549109 73.877 -16.549109 73.877 -0.30054739 151.03 
5.3e+009 -0.10037866 175.79 -16.917609 69.074 -16.917609 69.074 -0.2740623 141.67 
5.4e+009 -0.093352021 175.61 -17.259884 64.622 -17.259884 64.622 -0.25168036 133.03 
5.5e+009 -0.087471582 175.42 -17.572086 60.475 -17.572086 60.475 -0.232924 125.01 
5.6e+009 -0.082559642 175.23 -17.849695 56.588 -17.849695 56.588 -0.21723552 117.51 
5.7e+009 -0.078614558 175.03 -18.091033 52.923 -18.091033 52.923 -0.20442053 110.46 
5.8e+009 -0.075459781 174.84 -18.294188 49.447 -18.294188 49.447 -0.19393344 103.79 
5.9e+009 -0.07309445 174.64 -18.457004 46.13 -18.457004 46.13 -0.18549963 97.44 
6e+009 -0.071342769 174.44 -18.578569 42.946 -18.578569 42.946 -0.1789358 91.36 
6.1e+009 -0.070379494 174.23 -18.657839 39.87 -18.657839 39.87 -0.17397188 85.502 
6.2e+009 -0.070029239 174.02 -18.693635 36.882 -18.693635 36.882 -0.17051654 79.826 
6.3e+009 -0.070291929 173.81 -18.683179 33.962 -18.683179 33.962 -0.16839086 74.294 
6.4e+009 -0.071342769 173.59 -18.625896 31.092 -18.625896 31.092 -0.16777096 68.871 
6.5e+009 -0.07309445 173.36 -18.518306 28.252 -18.518306 28.252 -0.16856798 63.524 
6.6e+009 -0.075810256 173.12 -18.357942 25.424 -18.357942 25.424 -0.17095945 58.217 
6.7e+009 -0.079491089 172.88 -18.141378 22.587 -18.141378 22.587 -0.1752126 52.915 
6.8e+009 -0.08457671 172.61 -17.863268 19.717 -17.863268 19.717 -0.18168491 47.577 
6.9e+009 -0.091245137 172.34 -17.518397 16.788 -17.518397 16.788 -0.19091408 42.155 
7e+009 -0.10020292 172.04 -17.098559 13.765 -17.098559 13.765 -0.20379806 36.591 
7.1e+009 -0.11207304 171.71 -16.595353 10.602 -16.595353 10.602 -0.22177869 30.808 
7.2e+009 -0.12818958 171.34 -15.996127 7.2398 -15.996127 7.2398 -0.24694279 24.703 
7.3e+009 -0.15052029 170.93 -15.285392 3.5907 -15.285392 3.5907 -0.28276205 18.127 
7.4e+009 -0.1823945 170.46 -14.442775 -0.46957 -14.442775 -0.46957 -0.33496377 10.86 
7.5e+009 -0.22971268 169.9 -13.438935 -5.1492 -13.438935 -5.1492 -0.4124019 2.5382 
7.6e+009 -0.30270566 169.24 -12.242597 -10.776 -12.242597 -10.776 -0.53624177 -7.4502 
7.7e+009 -0.42470673 168.45 -10.80823 -17.98 -10.80823 -17.98 -0.74873061 -20.251 
7.8e+009 -0.64146235 167.61 -9.1092138 -27.852 -9.1092138 -27.852 -1.1463491 -38.07 
7.9e+009 -1.0368285 167.2 -7.2096726 -42.436 -7.2096726 -42.436 -1.9361376 -65.686 
8e+009 -1.6232534 169.1 -5.5458411 -64.559 -5.5458411 -64.559 -3.3246946 -112.85 
8.1e+009 -1.7954118 174.85 -5.2068129 -93.385 -5.2068129 -93.385 -3.9371422 175.98 
8.2e+009 -1.2188049 178.47 -6.6423527 -119.7 -6.6423527 -119.7 -2.5648062 114.93 
8.3e+009 -0.70086082 178.45 -8.8315891 -137.92 -8.8315891 -137.92 -1.4491027 78.826 
8.4e+009 -0.41868886 177.48 -10.978401 -149.92 -10.978401 -149.92 -0.88182141 56.887 
8.5e+009 -0.26967089 176.52 -12.87451 -158.29 -12.87451 -158.29 -0.58887863 42.031 
8.6e+009 -0.18585457 175.73 -14.518229 -164.57 -14.518229 -164.57 -0.4243419 30.975 
8.7e+009 -0.13550914 175.08 -15.948599 -169.59 -15.948599 -169.59 -0.32440813 22.135 
8.8e+009 -0.1032788 174.54 -17.204936 -173.8 -17.204936 -173.8 -0.25964172 14.683 
8.9e+009 -0.081595123 174.09 -18.317773 -177.47 -18.317773 -177.47 -0.21545453 8.1514 
9e+009 -0.066527464 173.7 -19.311442 179.24 -19.311442 179.24 -0.18408 2.2593 
9.1e+009 -0.055593508 173.35 -20.20531 176.23 -20.20531 176.23 -0.16095506 -3.1732 
9.2e+009 -0.047467565 173.05 -21.012981 173.42 -21.012981 173.42 -0.14345299 -8.2658 
9.3e+009 -0.041356275 172.77 -21.74589 170.76 -21.74589 170.76 -0.13004094 -13.101 
9.4e+009 -0.036557561 172.51 -22.412921 168.23 -22.412921 168.23 -0.11946708 -17.739 
9.5e+009 -0.032807685 172.27 -23.020954 165.79 -23.020954 165.79 -0.11101726 -22.223 
9.6e+009 -0.029843813 172.04 -23.575758 163.43 -23.575758 163.43 -0.10424573 -26.586 
9.7e+009 -0.027403736 171.83 -24.081427 161.12 -24.081427 161.12 -0.09827007 -30.855 
9.8e+009 -0.0253999 171.62 -24.543008 158.82 -24.543008 158.82 -0.092825252 -35.069 
9.9e+009 -0.023744905 171.43 -24.970569 156.62 -24.970569 156.62 -0.093352021 -39.204 
1e+010 -0.02235147 171.24 -25.352607 154.43 -25.352607 154.43 -0.091245137 -43.294 
1.01e+010 -0.021219469 171.06 -25.698159 152.26 -25.698159 152.26 -0.089840832 -47.356 
1.02e+010 -0.020261737 170.88 -26.009316 150.11 -26.009316 150.11 -0.08922652 -51.399 
1.03e+010 -0.019478217 170.71 -26.287494 147.96 -26.287494 147.96 -0.08922652 -55.432 
1.04e+010 -0.018868861 170.54 -26.533683 145.82 -26.533683 145.82 -0.089840832 -59.462 
1.05e+010 -0.018259547 170.37 -26.748998 143.67 -26.748998 143.67 -0.090981813 -63.498 
1.06e+010 -0.01782435 170.21 -26.934013 141.52 -26.934013 141.52 -0.092210729 -67.549 
1.07e+010 -0.017476208 170.06 -27.089786 139.36 -27.089786 139.36 -0.094142234 -71.624 
1.08e+010 -0.017128079 169.9 -27.216847 137.19 -27.216847 137.19 -0.09624982 -75.73 
1.09e+010 -0.01695402 169.75 -27.315293 134.99 -27.315293 134.99 -0.098709317 -79.878 
1.1e+010 -0.016779965 169.6 -27.385139 132.77 -27.385139 132.77 -0.10143314 -84.078 
1.11e+010 -0.016692938 169.45 -27.426705 130.52 -27.426705 130.52 -0.10459737 -88.34 
1.12e+010 -0.016605913 169.3 -27.439787 128.23 -27.439787 128.23 -0.10802658 -92.676 
1.13e+010 -0.016605913 169.15 -27.42405 125.9 -27.42405 125.9 -0.11198505 -97.099 
1.14e+010 -0.016692938 169.01 -27.379043 123.51 -27.379043 123.51 -0.1164735 -101.62 
1.15e+010 -0.016779965 168.86 -27.304209 121.07 -27.304209 121.07 -0.12149274 -106.27 
1.16e+010 -0.01695402 168.72 -27.199121 118.56 -27.199121 118.56 -0.12730812 -111.05 
1.17e+010 -0.01721511 168.58 -27.062715 115.97 -27.062715 115.97 -0.13392124 -116 
1.18e+010 -0.017563242 168.44 -26.893773 113.28 -26.893773 113.28 -0.1414222 -121.14 
1.19e+010 -0.017998426 168.29 -26.690069 110.47 -26.690069 110.47 -0.15034353 -126.53 
1.2e+010 -0.018520676 168.16 -26.461009 107.51 -26.461009 107.51 -0.17264274 -132.12 
1.21e+010 -0.019217059 168.02 -26.190408 104.44 -26.190408 104.44 -0.18150752 -138.02 
1.22e+010 -0.020000556 167.88 -25.882897 101.17 -25.882897 101.17 -0.19633191 -144.31 
1.23e+010 -0.020958259 167.74 -25.538443 97.684 -25.538443 97.684 -0.21518741 -151.03 
1.24e+010 -0.022090226 167.6 -25.156342 93.93 -25.156342 93.93 -0.23845738 -158.27 
1.25e+010 -0.023483619 167.47 -24.736533 89.861 -24.736533 89.861 -0.26698337 -166.14 
1.26e+010 -0.025225675 167.33 -24.280171 85.413 -24.280171 85.413 -0.30207611 -174.77 
1.27e+010 -0.027229471 167.2 -23.790376 80.51 -23.790376 80.51 -0.34508034 175.68 
1.28e+010 -0.029669499 167.07 -23.273264 75.06 -23.273264 75.06 -0.39756815 165.02 
1.29e+010 -0.032546127 166.94 -22.739613 68.963 -22.739613 68.963 -0.46117658 153.01 
1.3e+010 -0.035685353 166.81 -22.206796 62.106 -22.206796 62.106 -0.53707332 139.42 
1.31e+010 -0.039174713 166.7 -21.70732 54.406 -21.70732 54.406 -0.6328631 124.05 
1.32e+010 -0.042490904 166.59 -21.261988 45.839 -21.261988 45.839 -0.71367576 106.7 
1.33e+010 -0.045284468 166.48 -20.926932 36.438 -20.926932 36.438 -0.79705609 87.498 
1.34e+010 -0.046943572 166.39 -20.741538 26.351 -20.741538 26.351 -0.85503961 66.74 
1.35e+010 -0.047030902 166.3 -20.742768 15.91 -20.742768 15.91 -0.87547847 45.159 
1.36e+010 -0.045284468 166.21 -20.940569 5.5218 -20.940569 5.5218 -0.85273965 23.692 
1.37e+010 -0.042229053 166.11 -21.317508 -4.4206 -21.317508 -4.4206 -0.79410518 3.2452 
1.38e+010 -0.038389484 166 -21.835448 -13.634 -21.835448 -13.634 -0.71414726 -15.547 
1.39e+010 -0.034464408 165.89 -22.448312 -21.981 -22.448312 -21.981 -0.62781969 -32.405 
1.4e+010 -0.030715435 165.76 -23.113937 -29.445 -23.113937 -29.445 -0.54539323 -47.334 
1.41e+010 -0.02749087 165.64 -23.799115 -36.088 -23.799115 -36.088 -0.47189985 -60.504 
1.42e+010 -0.024703022 165.51 -24.480368 -42.008 -24.480368 -42.008 -0.40894146 -72.15 
1.43e+010 -0.02235147 165.38 -25.142514 -47.309 -25.142514 -47.309 -0.3562041 -82.513 
1.44e+010 -0.020435862 165.24 -25.776176 -52.089 -25.776176 -52.089 -0.31233451 -91.809 
1.45e+010 -0.018868861 165.11 -26.376442 -56.435 -26.376442 -56.435 -0.27603468 -100.22 
1.46e+010 -0.017563242 164.98 -26.94077 -60.419 -26.94077 -60.419 -0.24587049 -107.91 
1.47e+010 -0.016518888 164.85 -27.46765 -64.099 -27.46765 -64.099 -0.22044222 -114.99 
1.48e+010 -0.015648689 164.71 -27.959886 -67.548 -27.959886 -67.548 -0.19890878 -121.58 
1.49e+010 -0.014865585 164.58 -28.416222 -70.752 -28.416222 -70.752 -0.1821284 -127.73 
1.5e+010 -0.014256553 164.45 -28.836873 -73.783 -28.836873 -73.783 -0.16723966 -133.53 
1.51e+010 -0.013821556 164.32 -29.224003 -76.662 -29.224003 -76.662 -0.15449817 -139.03 
1.52e+010 -0.01338658 164.19 -29.578808 -79.409 -29.578808 -79.409 -0.14354129 -144.26 
1.53e+010 -0.013038616 164.06 -29.903517 -82.064 -29.903517 -82.064 -0.1343623 -149.29 
1.54e+010 -0.012777652 163.92 -30.198582 -84.558 -30.198582 -84.558 -0.12977643 -154.09 
1.55e+010 -0.012516695 163.79 -30.459891 -86.998 -30.459891 -86.998 -0.12210934 -158.72 
1.56e+010 -0.012255747 163.66 -30.69383 -89.369 -30.69383 -89.369 -0.11559323 -163.21 
1.57e+010 -0.012168766 163.53 -30.900665 -91.673 -30.900665 -91.673 -0.10996161 -167.57 
1.58e+010 -0.011994806 163.4 -31.079825 -93.917 -31.079825 -93.917 -0.10521277 -171.82 
1.59e+010 -0.011907828 163.27 -31.232318 -96.107 -31.232318 -96.107 -0.10116951 -175.95 
1.6e+010 -0.01182085 163.14 -31.35826 -98.25 -31.35826 -98.25 -0.097655161 -180 
1.61e+010 -0.01182085 163 -31.457746 -100.35 -31.457746 -100.35 -0.094669082 176.04 
1.62e+010 -0.011733873 162.87 -31.530823 -102.42 -31.530823 -102.42 -0.092122943 172.16 
1.63e+010 -0.011733873 162.74 -31.577468 -104.45 -31.577468 -104.45 -0.090016358 168.35 
1.64e+010 -0.01182085 162.6 -31.597913 -106.45 -31.597913 -106.45 -0.088349007 164.6 
1.65e+010 -0.01182085 162.47 -31.591313 -108.42 -31.591313 -108.42 -0.087120637 160.91 
1.66e+010 -0.011907828 162.33 -31.557399 -110.37 -31.557399 -110.37 -0.086155612 157.27 
1.67e+010 -0.011994806 162.2 -31.495839 -112.29 -31.495839 -112.29 -0.085716999 153.68 
1.68e+010 -0.012168766 162.06 -31.406246 -114.21 -31.406246 -114.21 -0.08580472 150.13 
1.69e+010 -0.012342729 161.92 -31.287571 -116.1 -31.287571 -116.1 -0.086857438 146.62 
1.7e+010 -0.01260368 161.78 -31.141942 -117.98 -31.141942 -117.98 -0.08966531 143.16 
1.71e+010 -0.012777652 161.63 -30.963964 -119.78 -30.963964 -119.78 -0.087120637 139.77 
1.72e+010 -0.013038616 161.49 -30.738273 -121.61 -30.738273 -121.61 -0.081595123 136.33 
1.73e+010 -0.01338658 161.34 -30.483091 -123.48 -30.483091 -123.48 -0.082121211 132.92 
1.74e+010 -0.013821556 161.19 -30.192121 -125.33 -30.192121 -125.33 -0.083611967 129.54 
1.75e+010 -0.014343555 161.03 -29.861245 -127.21 -29.861245 -127.21 -0.08580472 126.17 
1.76e+010 -0.014952593 160.88 -29.488221 -129.03 -29.488221 -129.03 -0.086331063 122.81 
1.77e+010 -0.015735705 160.71 -29.064953 -130.92 -29.064953 -130.92 -0.089402034 119.44 
1.78e+010 -0.016779965 160.54 -28.589375 -132.81 -28.589375 -132.81 -0.092561879 116.05 
1.79e+010 -0.017998426 160.36 -28.055313 -134.73 -28.055313 -134.73 -0.096425475 112.65 
1.8e+010 -0.019478217 160.17 -27.455141 -136.69 -27.455141 -136.69 -0.10143314 109.2 
1.81e+010 -0.021480687 159.97 -26.779657 -138.72 -26.779657 -138.72 -0.10785069 105.68 
1.82e+010 -0.0241804 159.76 -26.017474 -140.82 -26.017474 -140.82 -0.11620941 102.08 
1.83e+010 -0.027839414 159.52 -25.151311 -143.03 -25.151311 -143.03 -0.12774884 98.338 
1.84e+010 -0.032982062 159.25 -24.161277 -145.42 -24.161277 -145.42 -0.14389452 94.398 
1.85e+010 -0.040570849 158.94 -23.018003 -148.04 -23.018003 -148.04 -0.16750531 90.161 
1.86e+010 -0.052359696 158.56 -21.679137 -151.04 -21.679137 -151.04 -0.20424268 85.459 
1.87e+010 -0.072130982 158.09 -20.081244 -154.64 -20.081244 -154.64 -0.26546081 79.992 
1.88e+010 -0.10890609 157.46 -18.123165 -159.31 -18.123165 -159.31 -0.37967398 73.156 
1.89e+010 -0.18780701 156.54 -15.637171 -166.1 -15.637171 -166.1 -0.63015424 63.553 
1.9e+010 -0.39793186 155.17 -12.357857 -177.91 -12.357857 -177.91 -1.3447428 47.171 
1.91e+010 -1.0827535 154.4 -8.2608313 156.02 -8.2608313 156.02 -4.543448 7.7323 
1.92e+010 -1.5336686 162.78 -6.9230198 104.24 -6.9230198 104.24 -8.5346753 -162.95 
1.93e+010 -0.58990116 164.72 -10.621539 67.543 -10.621539 67.543 -1.9891619 129.43 
1.94e+010 -0.25409483 163.24 -14.154879 51.868 -14.154879 51.868 -0.79591368 107.54 
1.95e+010 -0.13921536 162.17 -16.787029 43.66 -16.787029 43.66 -0.43821654 96.096 
1.96e+010 -0.089314276 161.45 -18.795868 38.379 -18.795868 38.379 -0.28994366 88.509 
1.97e+010 -0.063639562 160.92 -20.385574 34.49 -20.385574 34.49 -0.21545453 82.72 
1.98e+010 -0.048777687 160.52 -21.677451 31.36 -21.677451 31.36 -0.17299716 77.907 
1.99e+010 -0.039436471 160.18 -22.747356 28.685 -22.747356 28.685 -0.14645589 73.678 
2e+010 -0.033243634 159.9 -23.644727 26.299 -23.644727 26.299 -0.12863034 69.825 
